%%MatrixMarket matrix coordinate pattern general
% [[108, 8, 10]] BB code, l=9, m=6, A=x^3+y+y^2, B=y^3+x+x^2 (Hz)
54 108 324
1 4
1 43
1 49
1 59
1 60
1 91
2 5
2 44
2 50
2 55
2 60
2 92
3 6
3 45
3 51
3 55
3 56
3 93
4 1
4 46
4 52
4 56
4 57
4 94
5 2
5 47
5 53
5 57
5 58
5 95
6 3
6 48
6 54
6 58
6 59
6 96
7 1
7 10
7 49
7 65
7 66
7 97
8 2
8 11
8 50
8 61
8 66
8 98
9 3
9 12
9 51
9 61
9 62
9 99
10 4
10 7
10 52
10 62
10 63
10 100
11 5
11 8
11 53
11 63
11 64
11 101
12 6
12 9
12 54
12 64
12 65
12 102
13 1
13 7
13 16
13 71
13 72
13 103
14 2
14 8
14 17
14 67
14 72
14 104
15 3
15 9
15 18
15 67
15 68
15 105
16 4
16 10
16 13
16 68
16 69
16 106
17 5
17 11
17 14
17 69
17 70
17 107
18 6
18 12
18 15
18 70
18 71
18 108
19 7
19 13
19 22
19 55
19 77
19 78
20 8
20 14
20 23
20 56
20 73
20 78
21 9
21 15
21 24
21 57
21 73
21 74
22 10
22 16
22 19
22 58
22 74
22 75
23 11
23 17
23 20
23 59
23 75
23 76
24 12
24 18
24 21
24 60
24 76
24 77
25 13
25 19
25 28
25 61
25 83
25 84
26 14
26 20
26 29
26 62
26 79
26 84
27 15
27 21
27 30
27 63
27 79
27 80
28 16
28 22
28 25
28 64
28 80
28 81
29 17
29 23
29 26
29 65
29 81
29 82
30 18
30 24
30 27
30 66
30 82
30 83
31 19
31 25
31 34
31 67
31 89
31 90
32 20
32 26
32 35
32 68
32 85
32 90
33 21
33 27
33 36
33 69
33 85
33 86
34 22
34 28
34 31
34 70
34 86
34 87
35 23
35 29
35 32
35 71
35 87
35 88
36 24
36 30
36 33
36 72
36 88
36 89
37 25
37 31
37 40
37 73
37 95
37 96
38 26
38 32
38 41
38 74
38 91
38 96
39 27
39 33
39 42
39 75
39 91
39 92
40 28
40 34
40 37
40 76
40 92
40 93
41 29
41 35
41 38
41 77
41 93
41 94
42 30
42 36
42 39
42 78
42 94
42 95
43 31
43 37
43 46
43 79
43 101
43 102
44 32
44 38
44 47
44 80
44 97
44 102
45 33
45 39
45 48
45 81
45 97
45 98
46 34
46 40
46 43
46 82
46 98
46 99
47 35
47 41
47 44
47 83
47 99
47 100
48 36
48 42
48 45
48 84
48 100
48 101
49 37
49 43
49 52
49 85
49 107
49 108
50 38
50 44
50 53
50 86
50 103
50 108
51 39
51 45
51 54
51 87
51 103
51 104
52 40
52 46
52 49
52 88
52 104
52 105
53 41
53 47
53 50
53 89
53 105
53 106
54 42
54 48
54 51
54 90
54 106
54 107
