%%MatrixMarket matrix coordinate pattern general
% [[108, 8, 10]] BB code, l=9, m=6, A=x^3+y+y^2, B=y^3+x+x^2 (Hx)
54 108 324
1 2
1 3
1 19
1 58
1 61
1 67
2 3
2 4
2 20
2 59
2 62
2 68
3 4
3 5
3 21
3 60
3 63
3 69
4 5
4 6
4 22
4 55
4 64
4 70
5 1
5 6
5 23
5 56
5 65
5 71
6 1
6 2
6 24
6 57
6 66
6 72
7 8
7 9
7 25
7 64
7 67
7 73
8 9
8 10
8 26
8 65
8 68
8 74
9 10
9 11
9 27
9 66
9 69
9 75
10 11
10 12
10 28
10 61
10 70
10 76
11 7
11 12
11 29
11 62
11 71
11 77
12 7
12 8
12 30
12 63
12 72
12 78
13 14
13 15
13 31
13 70
13 73
13 79
14 15
14 16
14 32
14 71
14 74
14 80
15 16
15 17
15 33
15 72
15 75
15 81
16 17
16 18
16 34
16 67
16 76
16 82
17 13
17 18
17 35
17 68
17 77
17 83
18 13
18 14
18 36
18 69
18 78
18 84
19 20
19 21
19 37
19 76
19 79
19 85
20 21
20 22
20 38
20 77
20 80
20 86
21 22
21 23
21 39
21 78
21 81
21 87
22 23
22 24
22 40
22 73
22 82
22 88
23 19
23 24
23 41
23 74
23 83
23 89
24 19
24 20
24 42
24 75
24 84
24 90
25 26
25 27
25 43
25 82
25 85
25 91
26 27
26 28
26 44
26 83
26 86
26 92
27 28
27 29
27 45
27 84
27 87
27 93
28 29
28 30
28 46
28 79
28 88
28 94
29 25
29 30
29 47
29 80
29 89
29 95
30 25
30 26
30 48
30 81
30 90
30 96
31 32
31 33
31 49
31 88
31 91
31 97
32 33
32 34
32 50
32 89
32 92
32 98
33 34
33 35
33 51
33 90
33 93
33 99
34 35
34 36
34 52
34 85
34 94
34 100
35 31
35 36
35 53
35 86
35 95
35 101
36 31
36 32
36 54
36 87
36 96
36 102
37 1
37 38
37 39
37 94
37 97
37 103
38 2
38 39
38 40
38 95
38 98
38 104
39 3
39 40
39 41
39 96
39 99
39 105
40 4
40 41
40 42
40 91
40 100
40 106
41 5
41 37
41 42
41 92
41 101
41 107
42 6
42 37
42 38
42 93
42 102
42 108
43 7
43 44
43 45
43 55
43 100
43 103
44 8
44 45
44 46
44 56
44 101
44 104
45 9
45 46
45 47
45 57
45 102
45 105
46 10
46 47
46 48
46 58
46 97
46 106
47 11
47 43
47 48
47 59
47 98
47 107
48 12
48 43
48 44
48 60
48 99
48 108
49 13
49 50
49 51
49 55
49 61
49 106
50 14
50 51
50 52
50 56
50 62
50 107
51 15
51 52
51 53
51 57
51 63
51 108
52 16
52 53
52 54
52 58
52 64
52 103
53 17
53 49
53 54
53 59
53 65
53 104
54 18
54 49
54 50
54 60
54 66
54 105
