%%MatrixMarket matrix coordinate pattern general
% [[360, 12, 24]] BB code, l=30, m=6, A=x^9+y+y^2, B=y^3+x^25+x^26 (Hx)
180 360 1080
1 2
1 3
1 55
1 184
1 331
1 337
2 3
2 4
2 56
2 185
2 332
2 338
3 4
3 5
3 57
3 186
3 333
3 339
4 5
4 6
4 58
4 181
4 334
4 340
5 1
5 6
5 59
5 182
5 335
5 341
6 1
6 2
6 60
6 183
6 336
6 342
7 8
7 9
7 61
7 190
7 337
7 343
8 9
8 10
8 62
8 191
8 338
8 344
9 10
9 11
9 63
9 192
9 339
9 345
10 11
10 12
10 64
10 187
10 340
10 346
11 7
11 12
11 65
11 188
11 341
11 347
12 7
12 8
12 66
12 189
12 342
12 348
13 14
13 15
13 67
13 196
13 343
13 349
14 15
14 16
14 68
14 197
14 344
14 350
15 16
15 17
15 69
15 198
15 345
15 351
16 17
16 18
16 70
16 193
16 346
16 352
17 13
17 18
17 71
17 194
17 347
17 353
18 13
18 14
18 72
18 195
18 348
18 354
19 20
19 21
19 73
19 202
19 349
19 355
20 21
20 22
20 74
20 203
20 350
20 356
21 22
21 23
21 75
21 204
21 351
21 357
22 23
22 24
22 76
22 199
22 352
22 358
23 19
23 24
23 77
23 200
23 353
23 359
24 19
24 20
24 78
24 201
24 354
24 360
25 26
25 27
25 79
25 181
25 208
25 355
26 27
26 28
26 80
26 182
26 209
26 356
27 28
27 29
27 81
27 183
27 210
27 357
28 29
28 30
28 82
28 184
28 205
28 358
29 25
29 30
29 83
29 185
29 206
29 359
30 25
30 26
30 84
30 186
30 207
30 360
31 32
31 33
31 85
31 181
31 187
31 214
32 33
32 34
32 86
32 182
32 188
32 215
33 34
33 35
33 87
33 183
33 189
33 216
34 35
34 36
34 88
34 184
34 190
34 211
35 31
35 36
35 89
35 185
35 191
35 212
36 31
36 32
36 90
36 186
36 192
36 213
37 38
37 39
37 91
37 187
37 193
37 220
38 39
38 40
38 92
38 188
38 194
38 221
39 40
39 41
39 93
39 189
39 195
39 222
40 41
40 42
40 94
40 190
40 196
40 217
41 37
41 42
41 95
41 191
41 197
41 218
42 37
42 38
42 96
42 192
42 198
42 219
43 44
43 45
43 97
43 193
43 199
43 226
44 45
44 46
44 98
44 194
44 200
44 227
45 46
45 47
45 99
45 195
45 201
45 228
46 47
46 48
46 100
46 196
46 202
46 223
47 43
47 48
47 101
47 197
47 203
47 224
48 43
48 44
48 102
48 198
48 204
48 225
49 50
49 51
49 103
49 199
49 205
49 232
50 51
50 52
50 104
50 200
50 206
50 233
51 52
51 53
51 105
51 201
51 207
51 234
52 53
52 54
52 106
52 202
52 208
52 229
53 49
53 54
53 107
53 203
53 209
53 230
54 49
54 50
54 108
54 204
54 210
54 231
55 56
55 57
55 109
55 205
55 211
55 238
56 57
56 58
56 110
56 206
56 212
56 239
57 58
57 59
57 111
57 207
57 213
57 240
58 59
58 60
58 112
58 208
58 214
58 235
59 55
59 60
59 113
59 209
59 215
59 236
60 55
60 56
60 114
60 210
60 216
60 237
61 62
61 63
61 115
61 211
61 217
61 244
62 63
62 64
62 116
62 212
62 218
62 245
63 64
63 65
63 117
63 213
63 219
63 246
64 65
64 66
64 118
64 214
64 220
64 241
65 61
65 66
65 119
65 215
65 221
65 242
66 61
66 62
66 120
66 216
66 222
66 243
67 68
67 69
67 121
67 217
67 223
67 250
68 69
68 70
68 122
68 218
68 224
68 251
69 70
69 71
69 123
69 219
69 225
69 252
70 71
70 72
70 124
70 220
70 226
70 247
71 67
71 72
71 125
71 221
71 227
71 248
72 67
72 68
72 126
72 222
72 228
72 249
73 74
73 75
73 127
73 223
73 229
73 256
74 75
74 76
74 128
74 224
74 230
74 257
75 76
75 77
75 129
75 225
75 231
75 258
76 77
76 78
76 130
76 226
76 232
76 253
77 73
77 78
77 131
77 227
77 233
77 254
78 73
78 74
78 132
78 228
78 234
78 255
79 80
79 81
79 133
79 229
79 235
79 262
80 81
80 82
80 134
80 230
80 236
80 263
81 82
81 83
81 135
81 231
81 237
81 264
82 83
82 84
82 136
82 232
82 238
82 259
83 79
83 84
83 137
83 233
83 239
83 260
84 79
84 80
84 138
84 234
84 240
84 261
85 86
85 87
85 139
85 235
85 241
85 268
86 87
86 88
86 140
86 236
86 242
86 269
87 88
87 89
87 141
87 237
87 243
87 270
88 89
88 90
88 142
88 238
88 244
88 265
89 85
89 90
89 143
89 239
89 245
89 266
90 85
90 86
90 144
90 240
90 246
90 267
91 92
91 93
91 145
91 241
91 247
91 274
92 93
92 94
92 146
92 242
92 248
92 275
93 94
93 95
93 147
93 243
93 249
93 276
94 95
94 96
94 148
94 244
94 250
94 271
95 91
95 96
95 149
95 245
95 251
95 272
96 91
96 92
96 150
96 246
96 252
96 273
97 98
97 99
97 151
97 247
97 253
97 280
98 99
98 100
98 152
98 248
98 254
98 281
99 100
99 101
99 153
99 249
99 255
99 282
100 101
100 102
100 154
100 250
100 256
100 277
101 97
101 102
101 155
101 251
101 257
101 278
102 97
102 98
102 156
102 252
102 258
102 279
103 104
103 105
103 157
103 253
103 259
103 286
104 105
104 106
104 158
104 254
104 260
104 287
105 106
105 107
105 159
105 255
105 261
105 288
106 107
106 108
106 160
106 256
106 262
106 283
107 103
107 108
107 161
107 257
107 263
107 284
108 103
108 104
108 162
108 258
108 264
108 285
109 110
109 111
109 163
109 259
109 265
109 292
110 111
110 112
110 164
110 260
110 266
110 293
111 112
111 113
111 165
111 261
111 267
111 294
112 113
112 114
112 166
112 262
112 268
112 289
113 109
113 114
113 167
113 263
113 269
113 290
114 109
114 110
114 168
114 264
114 270
114 291
115 116
115 117
115 169
115 265
115 271
115 298
116 117
116 118
116 170
116 266
116 272
116 299
117 118
117 119
117 171
117 267
117 273
117 300
118 119
118 120
118 172
118 268
118 274
118 295
119 115
119 120
119 173
119 269
119 275
119 296
120 115
120 116
120 174
120 270
120 276
120 297
121 122
121 123
121 175
121 271
121 277
121 304
122 123
122 124
122 176
122 272
122 278
122 305
123 124
123 125
123 177
123 273
123 279
123 306
124 125
124 126
124 178
124 274
124 280
124 301
125 121
125 126
125 179
125 275
125 281
125 302
126 121
126 122
126 180
126 276
126 282
126 303
127 1
127 128
127 129
127 277
127 283
127 310
128 2
128 129
128 130
128 278
128 284
128 311
129 3
129 130
129 131
129 279
129 285
129 312
130 4
130 131
130 132
130 280
130 286
130 307
131 5
131 127
131 132
131 281
131 287
131 308
132 6
132 127
132 128
132 282
132 288
132 309
133 7
133 134
133 135
133 283
133 289
133 316
134 8
134 135
134 136
134 284
134 290
134 317
135 9
135 136
135 137
135 285
135 291
135 318
136 10
136 137
136 138
136 286
136 292
136 313
137 11
137 133
137 138
137 287
137 293
137 314
138 12
138 133
138 134
138 288
138 294
138 315
139 13
139 140
139 141
139 289
139 295
139 322
140 14
140 141
140 142
140 290
140 296
140 323
141 15
141 142
141 143
141 291
141 297
141 324
142 16
142 143
142 144
142 292
142 298
142 319
143 17
143 139
143 144
143 293
143 299
143 320
144 18
144 139
144 140
144 294
144 300
144 321
145 19
145 146
145 147
145 295
145 301
145 328
146 20
146 147
146 148
146 296
146 302
146 329
147 21
147 148
147 149
147 297
147 303
147 330
148 22
148 149
148 150
148 298
148 304
148 325
149 23
149 145
149 150
149 299
149 305
149 326
150 24
150 145
150 146
150 300
150 306
150 327
151 25
151 152
151 153
151 301
151 307
151 334
152 26
152 153
152 154
152 302
152 308
152 335
153 27
153 154
153 155
153 303
153 309
153 336
154 28
154 155
154 156
154 304
154 310
154 331
155 29
155 151
155 156
155 305
155 311
155 332
156 30
156 151
156 152
156 306
156 312
156 333
157 31
157 158
157 159
157 307
157 313
157 340
158 32
158 159
158 160
158 308
158 314
158 341
159 33
159 160
159 161
159 309
159 315
159 342
160 34
160 161
160 162
160 310
160 316
160 337
161 35
161 157
161 162
161 311
161 317
161 338
162 36
162 157
162 158
162 312
162 318
162 339
163 37
163 164
163 165
163 313
163 319
163 346
164 38
164 165
164 166
164 314
164 320
164 347
165 39
165 166
165 167
165 315
165 321
165 348
166 40
166 167
166 168
166 316
166 322
166 343
167 41
167 163
167 168
167 317
167 323
167 344
168 42
168 163
168 164
168 318
168 324
168 345
169 43
169 170
169 171
169 319
169 325
169 352
170 44
170 171
170 172
170 320
170 326
170 353
171 45
171 172
171 173
171 321
171 327
171 354
172 46
172 173
172 174
172 322
172 328
172 349
173 47
173 169
173 174
173 323
173 329
173 350
174 48
174 169
174 170
174 324
174 330
174 351
175 49
175 176
175 177
175 325
175 331
175 358
176 50
176 177
176 178
176 326
176 332
176 359
177 51
177 178
177 179
177 327
177 333
177 360
178 52
178 179
178 180
178 328
178 334
178 355
179 53
179 175
179 180
179 329
179 335
179 356
180 54
180 175
180 176
180 330
180 336
180 357
