%%MatrixMarket matrix coordinate pattern general
% [[360, 12, 24]] BB code, l=30, m=6, A=x^9+y+y^2, B=y^3+x^25+x^26 (Hz)
180 360 1080
1 4
1 25
1 31
1 185
1 186
1 307
2 5
2 26
2 32
2 181
2 186
2 308
3 6
3 27
3 33
3 181
3 182
3 309
4 1
4 28
4 34
4 182
4 183
4 310
5 2
5 29
5 35
5 183
5 184
5 311
6 3
6 30
6 36
6 184
6 185
6 312
7 10
7 31
7 37
7 191
7 192
7 313
8 11
8 32
8 38
8 187
8 192
8 314
9 12
9 33
9 39
9 187
9 188
9 315
10 7
10 34
10 40
10 188
10 189
10 316
11 8
11 35
11 41
11 189
11 190
11 317
12 9
12 36
12 42
12 190
12 191
12 318
13 16
13 37
13 43
13 197
13 198
13 319
14 17
14 38
14 44
14 193
14 198
14 320
15 18
15 39
15 45
15 193
15 194
15 321
16 13
16 40
16 46
16 194
16 195
16 322
17 14
17 41
17 47
17 195
17 196
17 323
18 15
18 42
18 48
18 196
18 197
18 324
19 22
19 43
19 49
19 203
19 204
19 325
20 23
20 44
20 50
20 199
20 204
20 326
21 24
21 45
21 51
21 199
21 200
21 327
22 19
22 46
22 52
22 200
22 201
22 328
23 20
23 47
23 53
23 201
23 202
23 329
24 21
24 48
24 54
24 202
24 203
24 330
25 28
25 49
25 55
25 209
25 210
25 331
26 29
26 50
26 56
26 205
26 210
26 332
27 30
27 51
27 57
27 205
27 206
27 333
28 25
28 52
28 58
28 206
28 207
28 334
29 26
29 53
29 59
29 207
29 208
29 335
30 27
30 54
30 60
30 208
30 209
30 336
31 34
31 55
31 61
31 215
31 216
31 337
32 35
32 56
32 62
32 211
32 216
32 338
33 36
33 57
33 63
33 211
33 212
33 339
34 31
34 58
34 64
34 212
34 213
34 340
35 32
35 59
35 65
35 213
35 214
35 341
36 33
36 60
36 66
36 214
36 215
36 342
37 40
37 61
37 67
37 221
37 222
37 343
38 41
38 62
38 68
38 217
38 222
38 344
39 42
39 63
39 69
39 217
39 218
39 345
40 37
40 64
40 70
40 218
40 219
40 346
41 38
41 65
41 71
41 219
41 220
41 347
42 39
42 66
42 72
42 220
42 221
42 348
43 46
43 67
43 73
43 227
43 228
43 349
44 47
44 68
44 74
44 223
44 228
44 350
45 48
45 69
45 75
45 223
45 224
45 351
46 43
46 70
46 76
46 224
46 225
46 352
47 44
47 71
47 77
47 225
47 226
47 353
48 45
48 72
48 78
48 226
48 227
48 354
49 52
49 73
49 79
49 233
49 234
49 355
50 53
50 74
50 80
50 229
50 234
50 356
51 54
51 75
51 81
51 229
51 230
51 357
52 49
52 76
52 82
52 230
52 231
52 358
53 50
53 77
53 83
53 231
53 232
53 359
54 51
54 78
54 84
54 232
54 233
54 360
55 58
55 79
55 85
55 181
55 239
55 240
56 59
56 80
56 86
56 182
56 235
56 240
57 60
57 81
57 87
57 183
57 235
57 236
58 55
58 82
58 88
58 184
58 236
58 237
59 56
59 83
59 89
59 185
59 237
59 238
60 57
60 84
60 90
60 186
60 238
60 239
61 64
61 85
61 91
61 187
61 245
61 246
62 65
62 86
62 92
62 188
62 241
62 246
63 66
63 87
63 93
63 189
63 241
63 242
64 61
64 88
64 94
64 190
64 242
64 243
65 62
65 89
65 95
65 191
65 243
65 244
66 63
66 90
66 96
66 192
66 244
66 245
67 70
67 91
67 97
67 193
67 251
67 252
68 71
68 92
68 98
68 194
68 247
68 252
69 72
69 93
69 99
69 195
69 247
69 248
70 67
70 94
70 100
70 196
70 248
70 249
71 68
71 95
71 101
71 197
71 249
71 250
72 69
72 96
72 102
72 198
72 250
72 251
73 76
73 97
73 103
73 199
73 257
73 258
74 77
74 98
74 104
74 200
74 253
74 258
75 78
75 99
75 105
75 201
75 253
75 254
76 73
76 100
76 106
76 202
76 254
76 255
77 74
77 101
77 107
77 203
77 255
77 256
78 75
78 102
78 108
78 204
78 256
78 257
79 82
79 103
79 109
79 205
79 263
79 264
80 83
80 104
80 110
80 206
80 259
80 264
81 84
81 105
81 111
81 207
81 259
81 260
82 79
82 106
82 112
82 208
82 260
82 261
83 80
83 107
83 113
83 209
83 261
83 262
84 81
84 108
84 114
84 210
84 262
84 263
85 88
85 109
85 115
85 211
85 269
85 270
86 89
86 110
86 116
86 212
86 265
86 270
87 90
87 111
87 117
87 213
87 265
87 266
88 85
88 112
88 118
88 214
88 266
88 267
89 86
89 113
89 119
89 215
89 267
89 268
90 87
90 114
90 120
90 216
90 268
90 269
91 94
91 115
91 121
91 217
91 275
91 276
92 95
92 116
92 122
92 218
92 271
92 276
93 96
93 117
93 123
93 219
93 271
93 272
94 91
94 118
94 124
94 220
94 272
94 273
95 92
95 119
95 125
95 221
95 273
95 274
96 93
96 120
96 126
96 222
96 274
96 275
97 100
97 121
97 127
97 223
97 281
97 282
98 101
98 122
98 128
98 224
98 277
98 282
99 102
99 123
99 129
99 225
99 277
99 278
100 97
100 124
100 130
100 226
100 278
100 279
101 98
101 125
101 131
101 227
101 279
101 280
102 99
102 126
102 132
102 228
102 280
102 281
103 106
103 127
103 133
103 229
103 287
103 288
104 107
104 128
104 134
104 230
104 283
104 288
105 108
105 129
105 135
105 231
105 283
105 284
106 103
106 130
106 136
106 232
106 284
106 285
107 104
107 131
107 137
107 233
107 285
107 286
108 105
108 132
108 138
108 234
108 286
108 287
109 112
109 133
109 139
109 235
109 293
109 294
110 113
110 134
110 140
110 236
110 289
110 294
111 114
111 135
111 141
111 237
111 289
111 290
112 109
112 136
112 142
112 238
112 290
112 291
113 110
113 137
113 143
113 239
113 291
113 292
114 111
114 138
114 144
114 240
114 292
114 293
115 118
115 139
115 145
115 241
115 299
115 300
116 119
116 140
116 146
116 242
116 295
116 300
117 120
117 141
117 147
117 243
117 295
117 296
118 115
118 142
118 148
118 244
118 296
118 297
119 116
119 143
119 149
119 245
119 297
119 298
120 117
120 144
120 150
120 246
120 298
120 299
121 124
121 145
121 151
121 247
121 305
121 306
122 125
122 146
122 152
122 248
122 301
122 306
123 126
123 147
123 153
123 249
123 301
123 302
124 121
124 148
124 154
124 250
124 302
124 303
125 122
125 149
125 155
125 251
125 303
125 304
126 123
126 150
126 156
126 252
126 304
126 305
127 130
127 151
127 157
127 253
127 311
127 312
128 131
128 152
128 158
128 254
128 307
128 312
129 132
129 153
129 159
129 255
129 307
129 308
130 127
130 154
130 160
130 256
130 308
130 309
131 128
131 155
131 161
131 257
131 309
131 310
132 129
132 156
132 162
132 258
132 310
132 311
133 136
133 157
133 163
133 259
133 317
133 318
134 137
134 158
134 164
134 260
134 313
134 318
135 138
135 159
135 165
135 261
135 313
135 314
136 133
136 160
136 166
136 262
136 314
136 315
137 134
137 161
137 167
137 263
137 315
137 316
138 135
138 162
138 168
138 264
138 316
138 317
139 142
139 163
139 169
139 265
139 323
139 324
140 143
140 164
140 170
140 266
140 319
140 324
141 144
141 165
141 171
141 267
141 319
141 320
142 139
142 166
142 172
142 268
142 320
142 321
143 140
143 167
143 173
143 269
143 321
143 322
144 141
144 168
144 174
144 270
144 322
144 323
145 148
145 169
145 175
145 271
145 329
145 330
146 149
146 170
146 176
146 272
146 325
146 330
147 150
147 171
147 177
147 273
147 325
147 326
148 145
148 172
148 178
148 274
148 326
148 327
149 146
149 173
149 179
149 275
149 327
149 328
150 147
150 174
150 180
150 276
150 328
150 329
151 1
151 154
151 175
151 277
151 335
151 336
152 2
152 155
152 176
152 278
152 331
152 336
153 3
153 156
153 177
153 279
153 331
153 332
154 4
154 151
154 178
154 280
154 332
154 333
155 5
155 152
155 179
155 281
155 333
155 334
156 6
156 153
156 180
156 282
156 334
156 335
157 1
157 7
157 160
157 283
157 341
157 342
158 2
158 8
158 161
158 284
158 337
158 342
159 3
159 9
159 162
159 285
159 337
159 338
160 4
160 10
160 157
160 286
160 338
160 339
161 5
161 11
161 158
161 287
161 339
161 340
162 6
162 12
162 159
162 288
162 340
162 341
163 7
163 13
163 166
163 289
163 347
163 348
164 8
164 14
164 167
164 290
164 343
164 348
165 9
165 15
165 168
165 291
165 343
165 344
166 10
166 16
166 163
166 292
166 344
166 345
167 11
167 17
167 164
167 293
167 345
167 346
168 12
168 18
168 165
168 294
168 346
168 347
169 13
169 19
169 172
169 295
169 353
169 354
170 14
170 20
170 173
170 296
170 349
170 354
171 15
171 21
171 174
171 297
171 349
171 350
172 16
172 22
172 169
172 298
172 350
172 351
173 17
173 23
173 170
173 299
173 351
173 352
174 18
174 24
174 171
174 300
174 352
174 353
175 19
175 25
175 178
175 301
175 359
175 360
176 20
176 26
176 179
176 302
176 355
176 360
177 21
177 27
177 180
177 303
177 355
177 356
178 22
178 28
178 175
178 304
178 356
178 357
179 23
179 29
179 176
179 305
179 357
179 358
180 24
180 30
180 177
180 306
180 358
180 359
