%%MatrixMarket matrix coordinate pattern general
% [[72, 12, 6]] BB code, l=6, m=6, A=x^3+y+y^2, B=y^3+x+x^2 (Hz)
36 72 216
1 4
1 25
1 31
1 41
1 42
1 55
2 5
2 26
2 32
2 37
2 42
2 56
3 6
3 27
3 33
3 37
3 38
3 57
4 1
4 28
4 34
4 38
4 39
4 58
5 2
5 29
5 35
5 39
5 40
5 59
6 3
6 30
6 36
6 40
6 41
6 60
7 1
7 10
7 31
7 47
7 48
7 61
8 2
8 11
8 32
8 43
8 48
8 62
9 3
9 12
9 33
9 43
9 44
9 63
10 4
10 7
10 34
10 44
10 45
10 64
11 5
11 8
11 35
11 45
11 46
11 65
12 6
12 9
12 36
12 46
12 47
12 66
13 1
13 7
13 16
13 53
13 54
13 67
14 2
14 8
14 17
14 49
14 54
14 68
15 3
15 9
15 18
15 49
15 50
15 69
16 4
16 10
16 13
16 50
16 51
16 70
17 5
17 11
17 14
17 51
17 52
17 71
18 6
18 12
18 15
18 52
18 53
18 72
19 7
19 13
19 22
19 37
19 59
19 60
20 8
20 14
20 23
20 38
20 55
20 60
21 9
21 15
21 24
21 39
21 55
21 56
22 10
22 16
22 19
22 40
22 56
22 57
23 11
23 17
23 20
23 41
23 57
23 58
24 12
24 18
24 21
24 42
24 58
24 59
25 13
25 19
25 28
25 43
25 65
25 66
26 14
26 20
26 29
26 44
26 61
26 66
27 15
27 21
27 30
27 45
27 61
27 62
28 16
28 22
28 25
28 46
28 62
28 63
29 17
29 23
29 26
29 47
29 63
29 64
30 18
30 24
30 27
30 48
30 64
30 65
31 19
31 25
31 34
31 49
31 71
31 72
32 20
32 26
32 35
32 50
32 67
32 72
33 21
33 27
33 36
33 51
33 67
33 68
34 22
34 28
34 31
34 52
34 68
34 69
35 23
35 29
35 32
35 53
35 69
35 70
36 24
36 30
36 33
36 54
36 70
36 71
