%%MatrixMarket matrix coordinate pattern general
% [[72, 12, 6]] BB code, l=6, m=6, A=x^3+y+y^2, B=y^3+x+x^2 (Hx)
36 72 216
1 2
1 3
1 19
1 40
1 43
1 49
2 3
2 4
2 20
2 41
2 44
2 50
3 4
3 5
3 21
3 42
3 45
3 51
4 5
4 6
4 22
4 37
4 46
4 52
5 1
5 6
5 23
5 38
5 47
5 53
6 1
6 2
6 24
6 39
6 48
6 54
7 8
7 9
7 25
7 46
7 49
7 55
8 9
8 10
8 26
8 47
8 50
8 56
9 10
9 11
9 27
9 48
9 51
9 57
10 11
10 12
10 28
10 43
10 52
10 58
11 7
11 12
11 29
11 44
11 53
11 59
12 7
12 8
12 30
12 45
12 54
12 60
13 14
13 15
13 31
13 52
13 55
13 61
14 15
14 16
14 32
14 53
14 56
14 62
15 16
15 17
15 33
15 54
15 57
15 63
16 17
16 18
16 34
16 49
16 58
16 64
17 13
17 18
17 35
17 50
17 59
17 65
18 13
18 14
18 36
18 51
18 60
18 66
19 1
19 20
19 21
19 58
19 61
19 67
20 2
20 21
20 22
20 59
20 62
20 68
21 3
21 22
21 23
21 60
21 63
21 69
22 4
22 23
22 24
22 55
22 64
22 70
23 5
23 19
23 24
23 56
23 65
23 71
24 6
24 19
24 20
24 57
24 66
24 72
25 7
25 26
25 27
25 37
25 64
25 67
26 8
26 27
26 28
26 38
26 65
26 68
27 9
27 28
27 29
27 39
27 66
27 69
28 10
28 29
28 30
28 40
28 61
28 70
29 11
29 25
29 30
29 41
29 62
29 71
30 12
30 25
30 26
30 42
30 63
30 72
31 13
31 32
31 33
31 37
31 43
31 70
32 14
32 33
32 34
32 38
32 44
32 71
33 15
33 34
33 35
33 39
33 45
33 72
34 16
34 35
34 36
34 40
34 46
34 67
35 17
35 31
35 36
35 41
35 47
35 68
36 18
36 31
36 32
36 42
36 48
36 69
