%%MatrixMarket matrix coordinate pattern general
% [[756, 16, <=34]] BB code, l=21, m=18, A=x^3+y^10+y^17, B=y^5+x^3+x^19 (Hx)
378 756 2268
1 11
1 18
1 55
1 384
1 433
1 721
2 1
2 12
2 56
2 385
2 434
2 722
3 2
3 13
3 57
3 386
3 435
3 723
4 3
4 14
4 58
4 387
4 436
4 724
5 4
5 15
5 59
5 388
5 437
5 725
6 5
6 16
6 60
6 389
6 438
6 726
7 6
7 17
7 61
7 390
7 439
7 727
8 7
8 18
8 62
8 391
8 440
8 728
9 1
9 8
9 63
9 392
9 441
9 729
10 2
10 9
10 64
10 393
10 442
10 730
11 3
11 10
11 65
11 394
11 443
11 731
12 4
12 11
12 66
12 395
12 444
12 732
13 5
13 12
13 67
13 396
13 445
13 733
14 6
14 13
14 68
14 379
14 446
14 734
15 7
15 14
15 69
15 380
15 447
15 735
16 8
16 15
16 70
16 381
16 448
16 736
17 9
17 16
17 71
17 382
17 449
17 737
18 10
18 17
18 72
18 383
18 450
18 738
19 29
19 36
19 73
19 402
19 451
19 739
20 19
20 30
20 74
20 403
20 452
20 740
21 20
21 31
21 75
21 404
21 453
21 741
22 21
22 32
22 76
22 405
22 454
22 742
23 22
23 33
23 77
23 406
23 455
23 743
24 23
24 34
24 78
24 407
24 456
24 744
25 24
25 35
25 79
25 408
25 457
25 745
26 25
26 36
26 80
26 409
26 458
26 746
27 19
27 26
27 81
27 410
27 459
27 747
28 20
28 27
28 82
28 411
28 460
28 748
29 21
29 28
29 83
29 412
29 461
29 749
30 22
30 29
30 84
30 413
30 462
30 750
31 23
31 30
31 85
31 414
31 463
31 751
32 24
32 31
32 86
32 397
32 464
32 752
33 25
33 32
33 87
33 398
33 465
33 753
34 26
34 33
34 88
34 399
34 466
34 754
35 27
35 34
35 89
35 400
35 467
35 755
36 28
36 35
36 90
36 401
36 468
36 756
37 47
37 54
37 91
37 379
37 420
37 469
38 37
38 48
38 92
38 380
38 421
38 470
39 38
39 49
39 93
39 381
39 422
39 471
40 39
40 50
40 94
40 382
40 423
40 472
41 40
41 51
41 95
41 383
41 424
41 473
42 41
42 52
42 96
42 384
42 425
42 474
43 42
43 53
43 97
43 385
43 426
43 475
44 43
44 54
44 98
44 386
44 427
44 476
45 37
45 44
45 99
45 387
45 428
45 477
46 38
46 45
46 100
46 388
46 429
46 478
47 39
47 46
47 101
47 389
47 430
47 479
48 40
48 47
48 102
48 390
48 431
48 480
49 41
49 48
49 103
49 391
49 432
49 481
50 42
50 49
50 104
50 392
50 415
50 482
51 43
51 50
51 105
51 393
51 416
51 483
52 44
52 51
52 106
52 394
52 417
52 484
53 45
53 52
53 107
53 395
53 418
53 485
54 46
54 53
54 108
54 396
54 419
54 486
55 65
55 72
55 109
55 397
55 438
55 487
56 55
56 66
56 110
56 398
56 439
56 488
57 56
57 67
57 111
57 399
57 440
57 489
58 57
58 68
58 112
58 400
58 441
58 490
59 58
59 69
59 113
59 401
59 442
59 491
60 59
60 70
60 114
60 402
60 443
60 492
61 60
61 71
61 115
61 403
61 444
61 493
62 61
62 72
62 116
62 404
62 445
62 494
63 55
63 62
63 117
63 405
63 446
63 495
64 56
64 63
64 118
64 406
64 447
64 496
65 57
65 64
65 119
65 407
65 448
65 497
66 58
66 65
66 120
66 408
66 449
66 498
67 59
67 66
67 121
67 409
67 450
67 499
68 60
68 67
68 122
68 410
68 433
68 500
69 61
69 68
69 123
69 411
69 434
69 501
70 62
70 69
70 124
70 412
70 435
70 502
71 63
71 70
71 125
71 413
71 436
71 503
72 64
72 71
72 126
72 414
72 437
72 504
73 83
73 90
73 127
73 415
73 456
73 505
74 73
74 84
74 128
74 416
74 457
74 506
75 74
75 85
75 129
75 417
75 458
75 507
76 75
76 86
76 130
76 418
76 459
76 508
77 76
77 87
77 131
77 419
77 460
77 509
78 77
78 88
78 132
78 420
78 461
78 510
79 78
79 89
79 133
79 421
79 462
79 511
80 79
80 90
80 134
80 422
80 463
80 512
81 73
81 80
81 135
81 423
81 464
81 513
82 74
82 81
82 136
82 424
82 465
82 514
83 75
83 82
83 137
83 425
83 466
83 515
84 76
84 83
84 138
84 426
84 467
84 516
85 77
85 84
85 139
85 427
85 468
85 517
86 78
86 85
86 140
86 428
86 451
86 518
87 79
87 86
87 141
87 429
87 452
87 519
88 80
88 87
88 142
88 430
88 453
88 520
89 81
89 88
89 143
89 431
89 454
89 521
90 82
90 89
90 144
90 432
90 455
90 522
91 101
91 108
91 145
91 433
91 474
91 523
92 91
92 102
92 146
92 434
92 475
92 524
93 92
93 103
93 147
93 435
93 476
93 525
94 93
94 104
94 148
94 436
94 477
94 526
95 94
95 105
95 149
95 437
95 478
95 527
96 95
96 106
96 150
96 438
96 479
96 528
97 96
97 107
97 151
97 439
97 480
97 529
98 97
98 108
98 152
98 440
98 481
98 530
99 91
99 98
99 153
99 441
99 482
99 531
100 92
100 99
100 154
100 442
100 483
100 532
101 93
101 100
101 155
101 443
101 484
101 533
102 94
102 101
102 156
102 444
102 485
102 534
103 95
103 102
103 157
103 445
103 486
103 535
104 96
104 103
104 158
104 446
104 469
104 536
105 97
105 104
105 159
105 447
105 470
105 537
106 98
106 105
106 160
106 448
106 471
106 538
107 99
107 106
107 161
107 449
107 472
107 539
108 100
108 107
108 162
108 450
108 473
108 540
109 119
109 126
109 163
109 451
109 492
109 541
110 109
110 120
110 164
110 452
110 493
110 542
111 110
111 121
111 165
111 453
111 494
111 543
112 111
112 122
112 166
112 454
112 495
112 544
113 112
113 123
113 167
113 455
113 496
113 545
114 113
114 124
114 168
114 456
114 497
114 546
115 114
115 125
115 169
115 457
115 498
115 547
116 115
116 126
116 170
116 458
116 499
116 548
117 109
117 116
117 171
117 459
117 500
117 549
118 110
118 117
118 172
118 460
118 501
118 550
119 111
119 118
119 173
119 461
119 502
119 551
120 112
120 119
120 174
120 462
120 503
120 552
121 113
121 120
121 175
121 463
121 504
121 553
122 114
122 121
122 176
122 464
122 487
122 554
123 115
123 122
123 177
123 465
123 488
123 555
124 116
124 123
124 178
124 466
124 489
124 556
125 117
125 124
125 179
125 467
125 490
125 557
126 118
126 125
126 180
126 468
126 491
126 558
127 137
127 144
127 181
127 469
127 510
127 559
128 127
128 138
128 182
128 470
128 511
128 560
129 128
129 139
129 183
129 471
129 512
129 561
130 129
130 140
130 184
130 472
130 513
130 562
131 130
131 141
131 185
131 473
131 514
131 563
132 131
132 142
132 186
132 474
132 515
132 564
133 132
133 143
133 187
133 475
133 516
133 565
134 133
134 144
134 188
134 476
134 517
134 566
135 127
135 134
135 189
135 477
135 518
135 567
136 128
136 135
136 190
136 478
136 519
136 568
137 129
137 136
137 191
137 479
137 520
137 569
138 130
138 137
138 192
138 480
138 521
138 570
139 131
139 138
139 193
139 481
139 522
139 571
140 132
140 139
140 194
140 482
140 505
140 572
141 133
141 140
141 195
141 483
141 506
141 573
142 134
142 141
142 196
142 484
142 507
142 574
143 135
143 142
143 197
143 485
143 508
143 575
144 136
144 143
144 198
144 486
144 509
144 576
145 155
145 162
145 199
145 487
145 528
145 577
146 145
146 156
146 200
146 488
146 529
146 578
147 146
147 157
147 201
147 489
147 530
147 579
148 147
148 158
148 202
148 490
148 531
148 580
149 148
149 159
149 203
149 491
149 532
149 581
150 149
150 160
150 204
150 492
150 533
150 582
151 150
151 161
151 205
151 493
151 534
151 583
152 151
152 162
152 206
152 494
152 535
152 584
153 145
153 152
153 207
153 495
153 536
153 585
154 146
154 153
154 208
154 496
154 537
154 586
155 147
155 154
155 209
155 497
155 538
155 587
156 148
156 155
156 210
156 498
156 539
156 588
157 149
157 156
157 211
157 499
157 540
157 589
158 150
158 157
158 212
158 500
158 523
158 590
159 151
159 158
159 213
159 501
159 524
159 591
160 152
160 159
160 214
160 502
160 525
160 592
161 153
161 160
161 215
161 503
161 526
161 593
162 154
162 161
162 216
162 504
162 527
162 594
163 173
163 180
163 217
163 505
163 546
163 595
164 163
164 174
164 218
164 506
164 547
164 596
165 164
165 175
165 219
165 507
165 548
165 597
166 165
166 176
166 220
166 508
166 549
166 598
167 166
167 177
167 221
167 509
167 550
167 599
168 167
168 178
168 222
168 510
168 551
168 600
169 168
169 179
169 223
169 511
169 552
169 601
170 169
170 180
170 224
170 512
170 553
170 602
171 163
171 170
171 225
171 513
171 554
171 603
172 164
172 171
172 226
172 514
172 555
172 604
173 165
173 172
173 227
173 515
173 556
173 605
174 166
174 173
174 228
174 516
174 557
174 606
175 167
175 174
175 229
175 517
175 558
175 607
176 168
176 175
176 230
176 518
176 541
176 608
177 169
177 176
177 231
177 519
177 542
177 609
178 170
178 177
178 232
178 520
178 543
178 610
179 171
179 178
179 233
179 521
179 544
179 611
180 172
180 179
180 234
180 522
180 545
180 612
181 191
181 198
181 235
181 523
181 564
181 613
182 181
182 192
182 236
182 524
182 565
182 614
183 182
183 193
183 237
183 525
183 566
183 615
184 183
184 194
184 238
184 526
184 567
184 616
185 184
185 195
185 239
185 527
185 568
185 617
186 185
186 196
186 240
186 528
186 569
186 618
187 186
187 197
187 241
187 529
187 570
187 619
188 187
188 198
188 242
188 530
188 571
188 620
189 181
189 188
189 243
189 531
189 572
189 621
190 182
190 189
190 244
190 532
190 573
190 622
191 183
191 190
191 245
191 533
191 574
191 623
192 184
192 191
192 246
192 534
192 575
192 624
193 185
193 192
193 247
193 535
193 576
193 625
194 186
194 193
194 248
194 536
194 559
194 626
195 187
195 194
195 249
195 537
195 560
195 627
196 188
196 195
196 250
196 538
196 561
196 628
197 189
197 196
197 251
197 539
197 562
197 629
198 190
198 197
198 252
198 540
198 563
198 630
199 209
199 216
199 253
199 541
199 582
199 631
200 199
200 210
200 254
200 542
200 583
200 632
201 200
201 211
201 255
201 543
201 584
201 633
202 201
202 212
202 256
202 544
202 585
202 634
203 202
203 213
203 257
203 545
203 586
203 635
204 203
204 214
204 258
204 546
204 587
204 636
205 204
205 215
205 259
205 547
205 588
205 637
206 205
206 216
206 260
206 548
206 589
206 638
207 199
207 206
207 261
207 549
207 590
207 639
208 200
208 207
208 262
208 550
208 591
208 640
209 201
209 208
209 263
209 551
209 592
209 641
210 202
210 209
210 264
210 552
210 593
210 642
211 203
211 210
211 265
211 553
211 594
211 643
212 204
212 211
212 266
212 554
212 577
212 644
213 205
213 212
213 267
213 555
213 578
213 645
214 206
214 213
214 268
214 556
214 579
214 646
215 207
215 214
215 269
215 557
215 580
215 647
216 208
216 215
216 270
216 558
216 581
216 648
217 227
217 234
217 271
217 559
217 600
217 649
218 217
218 228
218 272
218 560
218 601
218 650
219 218
219 229
219 273
219 561
219 602
219 651
220 219
220 230
220 274
220 562
220 603
220 652
221 220
221 231
221 275
221 563
221 604
221 653
222 221
222 232
222 276
222 564
222 605
222 654
223 222
223 233
223 277
223 565
223 606
223 655
224 223
224 234
224 278
224 566
224 607
224 656
225 217
225 224
225 279
225 567
225 608
225 657
226 218
226 225
226 280
226 568
226 609
226 658
227 219
227 226
227 281
227 569
227 610
227 659
228 220
228 227
228 282
228 570
228 611
228 660
229 221
229 228
229 283
229 571
229 612
229 661
230 222
230 229
230 284
230 572
230 595
230 662
231 223
231 230
231 285
231 573
231 596
231 663
232 224
232 231
232 286
232 574
232 597
232 664
233 225
233 232
233 287
233 575
233 598
233 665
234 226
234 233
234 288
234 576
234 599
234 666
235 245
235 252
235 289
235 577
235 618
235 667
236 235
236 246
236 290
236 578
236 619
236 668
237 236
237 247
237 291
237 579
237 620
237 669
238 237
238 248
238 292
238 580
238 621
238 670
239 238
239 249
239 293
239 581
239 622
239 671
240 239
240 250
240 294
240 582
240 623
240 672
241 240
241 251
241 295
241 583
241 624
241 673
242 241
242 252
242 296
242 584
242 625
242 674
243 235
243 242
243 297
243 585
243 626
243 675
244 236
244 243
244 298
244 586
244 627
244 676
245 237
245 244
245 299
245 587
245 628
245 677
246 238
246 245
246 300
246 588
246 629
246 678
247 239
247 246
247 301
247 589
247 630
247 679
248 240
248 247
248 302
248 590
248 613
248 680
249 241
249 248
249 303
249 591
249 614
249 681
250 242
250 249
250 304
250 592
250 615
250 682
251 243
251 250
251 305
251 593
251 616
251 683
252 244
252 251
252 306
252 594
252 617
252 684
253 263
253 270
253 307
253 595
253 636
253 685
254 253
254 264
254 308
254 596
254 637
254 686
255 254
255 265
255 309
255 597
255 638
255 687
256 255
256 266
256 310
256 598
256 639
256 688
257 256
257 267
257 311
257 599
257 640
257 689
258 257
258 268
258 312
258 600
258 641
258 690
259 258
259 269
259 313
259 601
259 642
259 691
260 259
260 270
260 314
260 602
260 643
260 692
261 253
261 260
261 315
261 603
261 644
261 693
262 254
262 261
262 316
262 604
262 645
262 694
263 255
263 262
263 317
263 605
263 646
263 695
264 256
264 263
264 318
264 606
264 647
264 696
265 257
265 264
265 319
265 607
265 648
265 697
266 258
266 265
266 320
266 608
266 631
266 698
267 259
267 266
267 321
267 609
267 632
267 699
268 260
268 267
268 322
268 610
268 633
268 700
269 261
269 268
269 323
269 611
269 634
269 701
270 262
270 269
270 324
270 612
270 635
270 702
271 281
271 288
271 325
271 613
271 654
271 703
272 271
272 282
272 326
272 614
272 655
272 704
273 272
273 283
273 327
273 615
273 656
273 705
274 273
274 284
274 328
274 616
274 657
274 706
275 274
275 285
275 329
275 617
275 658
275 707
276 275
276 286
276 330
276 618
276 659
276 708
277 276
277 287
277 331
277 619
277 660
277 709
278 277
278 288
278 332
278 620
278 661
278 710
279 271
279 278
279 333
279 621
279 662
279 711
280 272
280 279
280 334
280 622
280 663
280 712
281 273
281 280
281 335
281 623
281 664
281 713
282 274
282 281
282 336
282 624
282 665
282 714
283 275
283 282
283 337
283 625
283 666
283 715
284 276
284 283
284 338
284 626
284 649
284 716
285 277
285 284
285 339
285 627
285 650
285 717
286 278
286 285
286 340
286 628
286 651
286 718
287 279
287 286
287 341
287 629
287 652
287 719
288 280
288 287
288 342
288 630
288 653
288 720
289 299
289 306
289 343
289 631
289 672
289 721
290 289
290 300
290 344
290 632
290 673
290 722
291 290
291 301
291 345
291 633
291 674
291 723
292 291
292 302
292 346
292 634
292 675
292 724
293 292
293 303
293 347
293 635
293 676
293 725
294 293
294 304
294 348
294 636
294 677
294 726
295 294
295 305
295 349
295 637
295 678
295 727
296 295
296 306
296 350
296 638
296 679
296 728
297 289
297 296
297 351
297 639
297 680
297 729
298 290
298 297
298 352
298 640
298 681
298 730
299 291
299 298
299 353
299 641
299 682
299 731
300 292
300 299
300 354
300 642
300 683
300 732
301 293
301 300
301 355
301 643
301 684
301 733
302 294
302 301
302 356
302 644
302 667
302 734
303 295
303 302
303 357
303 645
303 668
303 735
304 296
304 303
304 358
304 646
304 669
304 736
305 297
305 304
305 359
305 647
305 670
305 737
306 298
306 305
306 360
306 648
306 671
306 738
307 317
307 324
307 361
307 649
307 690
307 739
308 307
308 318
308 362
308 650
308 691
308 740
309 308
309 319
309 363
309 651
309 692
309 741
310 309
310 320
310 364
310 652
310 693
310 742
311 310
311 321
311 365
311 653
311 694
311 743
312 311
312 322
312 366
312 654
312 695
312 744
313 312
313 323
313 367
313 655
313 696
313 745
314 313
314 324
314 368
314 656
314 697
314 746
315 307
315 314
315 369
315 657
315 698
315 747
316 308
316 315
316 370
316 658
316 699
316 748
317 309
317 316
317 371
317 659
317 700
317 749
318 310
318 317
318 372
318 660
318 701
318 750
319 311
319 318
319 373
319 661
319 702
319 751
320 312
320 319
320 374
320 662
320 685
320 752
321 313
321 320
321 375
321 663
321 686
321 753
322 314
322 321
322 376
322 664
322 687
322 754
323 315
323 322
323 377
323 665
323 688
323 755
324 316
324 323
324 378
324 666
324 689
324 756
325 1
325 335
325 342
325 379
325 667
325 708
326 2
326 325
326 336
326 380
326 668
326 709
327 3
327 326
327 337
327 381
327 669
327 710
328 4
328 327
328 338
328 382
328 670
328 711
329 5
329 328
329 339
329 383
329 671
329 712
330 6
330 329
330 340
330 384
330 672
330 713
331 7
331 330
331 341
331 385
331 673
331 714
332 8
332 331
332 342
332 386
332 674
332 715
333 9
333 325
333 332
333 387
333 675
333 716
334 10
334 326
334 333
334 388
334 676
334 717
335 11
335 327
335 334
335 389
335 677
335 718
336 12
336 328
336 335
336 390
336 678
336 719
337 13
337 329
337 336
337 391
337 679
337 720
338 14
338 330
338 337
338 392
338 680
338 703
339 15
339 331
339 338
339 393
339 681
339 704
340 16
340 332
340 339
340 394
340 682
340 705
341 17
341 333
341 340
341 395
341 683
341 706
342 18
342 334
342 341
342 396
342 684
342 707
343 19
343 353
343 360
343 397
343 685
343 726
344 20
344 343
344 354
344 398
344 686
344 727
345 21
345 344
345 355
345 399
345 687
345 728
346 22
346 345
346 356
346 400
346 688
346 729
347 23
347 346
347 357
347 401
347 689
347 730
348 24
348 347
348 358
348 402
348 690
348 731
349 25
349 348
349 359
349 403
349 691
349 732
350 26
350 349
350 360
350 404
350 692
350 733
351 27
351 343
351 350
351 405
351 693
351 734
352 28
352 344
352 351
352 406
352 694
352 735
353 29
353 345
353 352
353 407
353 695
353 736
354 30
354 346
354 353
354 408
354 696
354 737
355 31
355 347
355 354
355 409
355 697
355 738
356 32
356 348
356 355
356 410
356 698
356 721
357 33
357 349
357 356
357 411
357 699
357 722
358 34
358 350
358 357
358 412
358 700
358 723
359 35
359 351
359 358
359 413
359 701
359 724
360 36
360 352
360 359
360 414
360 702
360 725
361 37
361 371
361 378
361 415
361 703
361 744
362 38
362 361
362 372
362 416
362 704
362 745
363 39
363 362
363 373
363 417
363 705
363 746
364 40
364 363
364 374
364 418
364 706
364 747
365 41
365 364
365 375
365 419
365 707
365 748
366 42
366 365
366 376
366 420
366 708
366 749
367 43
367 366
367 377
367 421
367 709
367 750
368 44
368 367
368 378
368 422
368 710
368 751
369 45
369 361
369 368
369 423
369 711
369 752
370 46
370 362
370 369
370 424
370 712
370 753
371 47
371 363
371 370
371 425
371 713
371 754
372 48
372 364
372 371
372 426
372 714
372 755
373 49
373 365
373 372
373 427
373 715
373 756
374 50
374 366
374 373
374 428
374 716
374 739
375 51
375 367
375 374
375 429
375 717
375 740
376 52
376 368
376 375
376 430
376 718
376 741
377 53
377 369
377 376
377 431
377 719
377 742
378 54
378 370
378 377
378 432
378 720
378 743
