%%MatrixMarket matrix coordinate pattern general
% [[756, 16, <=34]] BB code, l=21, m=18, A=x^3+y^10+y^17, B=y^5+x^3+x^19 (Hz)
378 756 2268
1 14
1 37
1 325
1 380
1 387
1 703
2 15
2 38
2 326
2 381
2 388
2 704
3 16
3 39
3 327
3 382
3 389
3 705
4 17
4 40
4 328
4 383
4 390
4 706
5 18
5 41
5 329
5 384
5 391
5 707
6 1
6 42
6 330
6 385
6 392
6 708
7 2
7 43
7 331
7 386
7 393
7 709
8 3
8 44
8 332
8 387
8 394
8 710
9 4
9 45
9 333
9 388
9 395
9 711
10 5
10 46
10 334
10 389
10 396
10 712
11 6
11 47
11 335
11 379
11 390
11 713
12 7
12 48
12 336
12 380
12 391
12 714
13 8
13 49
13 337
13 381
13 392
13 715
14 9
14 50
14 338
14 382
14 393
14 716
15 10
15 51
15 339
15 383
15 394
15 717
16 11
16 52
16 340
16 384
16 395
16 718
17 12
17 53
17 341
17 385
17 396
17 719
18 13
18 54
18 342
18 379
18 386
18 720
19 32
19 55
19 343
19 398
19 405
19 721
20 33
20 56
20 344
20 399
20 406
20 722
21 34
21 57
21 345
21 400
21 407
21 723
22 35
22 58
22 346
22 401
22 408
22 724
23 36
23 59
23 347
23 402
23 409
23 725
24 19
24 60
24 348
24 403
24 410
24 726
25 20
25 61
25 349
25 404
25 411
25 727
26 21
26 62
26 350
26 405
26 412
26 728
27 22
27 63
27 351
27 406
27 413
27 729
28 23
28 64
28 352
28 407
28 414
28 730
29 24
29 65
29 353
29 397
29 408
29 731
30 25
30 66
30 354
30 398
30 409
30 732
31 26
31 67
31 355
31 399
31 410
31 733
32 27
32 68
32 356
32 400
32 411
32 734
33 28
33 69
33 357
33 401
33 412
33 735
34 29
34 70
34 358
34 402
34 413
34 736
35 30
35 71
35 359
35 403
35 414
35 737
36 31
36 72
36 360
36 397
36 404
36 738
37 50
37 73
37 361
37 416
37 423
37 739
38 51
38 74
38 362
38 417
38 424
38 740
39 52
39 75
39 363
39 418
39 425
39 741
40 53
40 76
40 364
40 419
40 426
40 742
41 54
41 77
41 365
41 420
41 427
41 743
42 37
42 78
42 366
42 421
42 428
42 744
43 38
43 79
43 367
43 422
43 429
43 745
44 39
44 80
44 368
44 423
44 430
44 746
45 40
45 81
45 369
45 424
45 431
45 747
46 41
46 82
46 370
46 425
46 432
46 748
47 42
47 83
47 371
47 415
47 426
47 749
48 43
48 84
48 372
48 416
48 427
48 750
49 44
49 85
49 373
49 417
49 428
49 751
50 45
50 86
50 374
50 418
50 429
50 752
51 46
51 87
51 375
51 419
51 430
51 753
52 47
52 88
52 376
52 420
52 431
52 754
53 48
53 89
53 377
53 421
53 432
53 755
54 49
54 90
54 378
54 415
54 422
54 756
55 1
55 68
55 91
55 379
55 434
55 441
56 2
56 69
56 92
56 380
56 435
56 442
57 3
57 70
57 93
57 381
57 436
57 443
58 4
58 71
58 94
58 382
58 437
58 444
59 5
59 72
59 95
59 383
59 438
59 445
60 6
60 55
60 96
60 384
60 439
60 446
61 7
61 56
61 97
61 385
61 440
61 447
62 8
62 57
62 98
62 386
62 441
62 448
63 9
63 58
63 99
63 387
63 442
63 449
64 10
64 59
64 100
64 388
64 443
64 450
65 11
65 60
65 101
65 389
65 433
65 444
66 12
66 61
66 102
66 390
66 434
66 445
67 13
67 62
67 103
67 391
67 435
67 446
68 14
68 63
68 104
68 392
68 436
68 447
69 15
69 64
69 105
69 393
69 437
69 448
70 16
70 65
70 106
70 394
70 438
70 449
71 17
71 66
71 107
71 395
71 439
71 450
72 18
72 67
72 108
72 396
72 433
72 440
73 19
73 86
73 109
73 397
73 452
73 459
74 20
74 87
74 110
74 398
74 453
74 460
75 21
75 88
75 111
75 399
75 454
75 461
76 22
76 89
76 112
76 400
76 455
76 462
77 23
77 90
77 113
77 401
77 456
77 463
78 24
78 73
78 114
78 402
78 457
78 464
79 25
79 74
79 115
79 403
79 458
79 465
80 26
80 75
80 116
80 404
80 459
80 466
81 27
81 76
81 117
81 405
81 460
81 467
82 28
82 77
82 118
82 406
82 461
82 468
83 29
83 78
83 119
83 407
83 451
83 462
84 30
84 79
84 120
84 408
84 452
84 463
85 31
85 80
85 121
85 409
85 453
85 464
86 32
86 81
86 122
86 410
86 454
86 465
87 33
87 82
87 123
87 411
87 455
87 466
88 34
88 83
88 124
88 412
88 456
88 467
89 35
89 84
89 125
89 413
89 457
89 468
90 36
90 85
90 126
90 414
90 451
90 458
91 37
91 104
91 127
91 415
91 470
91 477
92 38
92 105
92 128
92 416
92 471
92 478
93 39
93 106
93 129
93 417
93 472
93 479
94 40
94 107
94 130
94 418
94 473
94 480
95 41
95 108
95 131
95 419
95 474
95 481
96 42
96 91
96 132
96 420
96 475
96 482
97 43
97 92
97 133
97 421
97 476
97 483
98 44
98 93
98 134
98 422
98 477
98 484
99 45
99 94
99 135
99 423
99 478
99 485
100 46
100 95
100 136
100 424
100 479
100 486
101 47
101 96
101 137
101 425
101 469
101 480
102 48
102 97
102 138
102 426
102 470
102 481
103 49
103 98
103 139
103 427
103 471
103 482
104 50
104 99
104 140
104 428
104 472
104 483
105 51
105 100
105 141
105 429
105 473
105 484
106 52
106 101
106 142
106 430
106 474
106 485
107 53
107 102
107 143
107 431
107 475
107 486
108 54
108 103
108 144
108 432
108 469
108 476
109 55
109 122
109 145
109 433
109 488
109 495
110 56
110 123
110 146
110 434
110 489
110 496
111 57
111 124
111 147
111 435
111 490
111 497
112 58
112 125
112 148
112 436
112 491
112 498
113 59
113 126
113 149
113 437
113 492
113 499
114 60
114 109
114 150
114 438
114 493
114 500
115 61
115 110
115 151
115 439
115 494
115 501
116 62
116 111
116 152
116 440
116 495
116 502
117 63
117 112
117 153
117 441
117 496
117 503
118 64
118 113
118 154
118 442
118 497
118 504
119 65
119 114
119 155
119 443
119 487
119 498
120 66
120 115
120 156
120 444
120 488
120 499
121 67
121 116
121 157
121 445
121 489
121 500
122 68
122 117
122 158
122 446
122 490
122 501
123 69
123 118
123 159
123 447
123 491
123 502
124 70
124 119
124 160
124 448
124 492
124 503
125 71
125 120
125 161
125 449
125 493
125 504
126 72
126 121
126 162
126 450
126 487
126 494
127 73
127 140
127 163
127 451
127 506
127 513
128 74
128 141
128 164
128 452
128 507
128 514
129 75
129 142
129 165
129 453
129 508
129 515
130 76
130 143
130 166
130 454
130 509
130 516
131 77
131 144
131 167
131 455
131 510
131 517
132 78
132 127
132 168
132 456
132 511
132 518
133 79
133 128
133 169
133 457
133 512
133 519
134 80
134 129
134 170
134 458
134 513
134 520
135 81
135 130
135 171
135 459
135 514
135 521
136 82
136 131
136 172
136 460
136 515
136 522
137 83
137 132
137 173
137 461
137 505
137 516
138 84
138 133
138 174
138 462
138 506
138 517
139 85
139 134
139 175
139 463
139 507
139 518
140 86
140 135
140 176
140 464
140 508
140 519
141 87
141 136
141 177
141 465
141 509
141 520
142 88
142 137
142 178
142 466
142 510
142 521
143 89
143 138
143 179
143 467
143 511
143 522
144 90
144 139
144 180
144 468
144 505
144 512
145 91
145 158
145 181
145 469
145 524
145 531
146 92
146 159
146 182
146 470
146 525
146 532
147 93
147 160
147 183
147 471
147 526
147 533
148 94
148 161
148 184
148 472
148 527
148 534
149 95
149 162
149 185
149 473
149 528
149 535
150 96
150 145
150 186
150 474
150 529
150 536
151 97
151 146
151 187
151 475
151 530
151 537
152 98
152 147
152 188
152 476
152 531
152 538
153 99
153 148
153 189
153 477
153 532
153 539
154 100
154 149
154 190
154 478
154 533
154 540
155 101
155 150
155 191
155 479
155 523
155 534
156 102
156 151
156 192
156 480
156 524
156 535
157 103
157 152
157 193
157 481
157 525
157 536
158 104
158 153
158 194
158 482
158 526
158 537
159 105
159 154
159 195
159 483
159 527
159 538
160 106
160 155
160 196
160 484
160 528
160 539
161 107
161 156
161 197
161 485
161 529
161 540
162 108
162 157
162 198
162 486
162 523
162 530
163 109
163 176
163 199
163 487
163 542
163 549
164 110
164 177
164 200
164 488
164 543
164 550
165 111
165 178
165 201
165 489
165 544
165 551
166 112
166 179
166 202
166 490
166 545
166 552
167 113
167 180
167 203
167 491
167 546
167 553
168 114
168 163
168 204
168 492
168 547
168 554
169 115
169 164
169 205
169 493
169 548
169 555
170 116
170 165
170 206
170 494
170 549
170 556
171 117
171 166
171 207
171 495
171 550
171 557
172 118
172 167
172 208
172 496
172 551
172 558
173 119
173 168
173 209
173 497
173 541
173 552
174 120
174 169
174 210
174 498
174 542
174 553
175 121
175 170
175 211
175 499
175 543
175 554
176 122
176 171
176 212
176 500
176 544
176 555
177 123
177 172
177 213
177 501
177 545
177 556
178 124
178 173
178 214
178 502
178 546
178 557
179 125
179 174
179 215
179 503
179 547
179 558
180 126
180 175
180 216
180 504
180 541
180 548
181 127
181 194
181 217
181 505
181 560
181 567
182 128
182 195
182 218
182 506
182 561
182 568
183 129
183 196
183 219
183 507
183 562
183 569
184 130
184 197
184 220
184 508
184 563
184 570
185 131
185 198
185 221
185 509
185 564
185 571
186 132
186 181
186 222
186 510
186 565
186 572
187 133
187 182
187 223
187 511
187 566
187 573
188 134
188 183
188 224
188 512
188 567
188 574
189 135
189 184
189 225
189 513
189 568
189 575
190 136
190 185
190 226
190 514
190 569
190 576
191 137
191 186
191 227
191 515
191 559
191 570
192 138
192 187
192 228
192 516
192 560
192 571
193 139
193 188
193 229
193 517
193 561
193 572
194 140
194 189
194 230
194 518
194 562
194 573
195 141
195 190
195 231
195 519
195 563
195 574
196 142
196 191
196 232
196 520
196 564
196 575
197 143
197 192
197 233
197 521
197 565
197 576
198 144
198 193
198 234
198 522
198 559
198 566
199 145
199 212
199 235
199 523
199 578
199 585
200 146
200 213
200 236
200 524
200 579
200 586
201 147
201 214
201 237
201 525
201 580
201 587
202 148
202 215
202 238
202 526
202 581
202 588
203 149
203 216
203 239
203 527
203 582
203 589
204 150
204 199
204 240
204 528
204 583
204 590
205 151
205 200
205 241
205 529
205 584
205 591
206 152
206 201
206 242
206 530
206 585
206 592
207 153
207 202
207 243
207 531
207 586
207 593
208 154
208 203
208 244
208 532
208 587
208 594
209 155
209 204
209 245
209 533
209 577
209 588
210 156
210 205
210 246
210 534
210 578
210 589
211 157
211 206
211 247
211 535
211 579
211 590
212 158
212 207
212 248
212 536
212 580
212 591
213 159
213 208
213 249
213 537
213 581
213 592
214 160
214 209
214 250
214 538
214 582
214 593
215 161
215 210
215 251
215 539
215 583
215 594
216 162
216 211
216 252
216 540
216 577
216 584
217 163
217 230
217 253
217 541
217 596
217 603
218 164
218 231
218 254
218 542
218 597
218 604
219 165
219 232
219 255
219 543
219 598
219 605
220 166
220 233
220 256
220 544
220 599
220 606
221 167
221 234
221 257
221 545
221 600
221 607
222 168
222 217
222 258
222 546
222 601
222 608
223 169
223 218
223 259
223 547
223 602
223 609
224 170
224 219
224 260
224 548
224 603
224 610
225 171
225 220
225 261
225 549
225 604
225 611
226 172
226 221
226 262
226 550
226 605
226 612
227 173
227 222
227 263
227 551
227 595
227 606
228 174
228 223
228 264
228 552
228 596
228 607
229 175
229 224
229 265
229 553
229 597
229 608
230 176
230 225
230 266
230 554
230 598
230 609
231 177
231 226
231 267
231 555
231 599
231 610
232 178
232 227
232 268
232 556
232 600
232 611
233 179
233 228
233 269
233 557
233 601
233 612
234 180
234 229
234 270
234 558
234 595
234 602
235 181
235 248
235 271
235 559
235 614
235 621
236 182
236 249
236 272
236 560
236 615
236 622
237 183
237 250
237 273
237 561
237 616
237 623
238 184
238 251
238 274
238 562
238 617
238 624
239 185
239 252
239 275
239 563
239 618
239 625
240 186
240 235
240 276
240 564
240 619
240 626
241 187
241 236
241 277
241 565
241 620
241 627
242 188
242 237
242 278
242 566
242 621
242 628
243 189
243 238
243 279
243 567
243 622
243 629
244 190
244 239
244 280
244 568
244 623
244 630
245 191
245 240
245 281
245 569
245 613
245 624
246 192
246 241
246 282
246 570
246 614
246 625
247 193
247 242
247 283
247 571
247 615
247 626
248 194
248 243
248 284
248 572
248 616
248 627
249 195
249 244
249 285
249 573
249 617
249 628
250 196
250 245
250 286
250 574
250 618
250 629
251 197
251 246
251 287
251 575
251 619
251 630
252 198
252 247
252 288
252 576
252 613
252 620
253 199
253 266
253 289
253 577
253 632
253 639
254 200
254 267
254 290
254 578
254 633
254 640
255 201
255 268
255 291
255 579
255 634
255 641
256 202
256 269
256 292
256 580
256 635
256 642
257 203
257 270
257 293
257 581
257 636
257 643
258 204
258 253
258 294
258 582
258 637
258 644
259 205
259 254
259 295
259 583
259 638
259 645
260 206
260 255
260 296
260 584
260 639
260 646
261 207
261 256
261 297
261 585
261 640
261 647
262 208
262 257
262 298
262 586
262 641
262 648
263 209
263 258
263 299
263 587
263 631
263 642
264 210
264 259
264 300
264 588
264 632
264 643
265 211
265 260
265 301
265 589
265 633
265 644
266 212
266 261
266 302
266 590
266 634
266 645
267 213
267 262
267 303
267 591
267 635
267 646
268 214
268 263
268 304
268 592
268 636
268 647
269 215
269 264
269 305
269 593
269 637
269 648
270 216
270 265
270 306
270 594
270 631
270 638
271 217
271 284
271 307
271 595
271 650
271 657
272 218
272 285
272 308
272 596
272 651
272 658
273 219
273 286
273 309
273 597
273 652
273 659
274 220
274 287
274 310
274 598
274 653
274 660
275 221
275 288
275 311
275 599
275 654
275 661
276 222
276 271
276 312
276 600
276 655
276 662
277 223
277 272
277 313
277 601
277 656
277 663
278 224
278 273
278 314
278 602
278 657
278 664
279 225
279 274
279 315
279 603
279 658
279 665
280 226
280 275
280 316
280 604
280 659
280 666
281 227
281 276
281 317
281 605
281 649
281 660
282 228
282 277
282 318
282 606
282 650
282 661
283 229
283 278
283 319
283 607
283 651
283 662
284 230
284 279
284 320
284 608
284 652
284 663
285 231
285 280
285 321
285 609
285 653
285 664
286 232
286 281
286 322
286 610
286 654
286 665
287 233
287 282
287 323
287 611
287 655
287 666
288 234
288 283
288 324
288 612
288 649
288 656
289 235
289 302
289 325
289 613
289 668
289 675
290 236
290 303
290 326
290 614
290 669
290 676
291 237
291 304
291 327
291 615
291 670
291 677
292 238
292 305
292 328
292 616
292 671
292 678
293 239
293 306
293 329
293 617
293 672
293 679
294 240
294 289
294 330
294 618
294 673
294 680
295 241
295 290
295 331
295 619
295 674
295 681
296 242
296 291
296 332
296 620
296 675
296 682
297 243
297 292
297 333
297 621
297 676
297 683
298 244
298 293
298 334
298 622
298 677
298 684
299 245
299 294
299 335
299 623
299 667
299 678
300 246
300 295
300 336
300 624
300 668
300 679
301 247
301 296
301 337
301 625
301 669
301 680
302 248
302 297
302 338
302 626
302 670
302 681
303 249
303 298
303 339
303 627
303 671
303 682
304 250
304 299
304 340
304 628
304 672
304 683
305 251
305 300
305 341
305 629
305 673
305 684
306 252
306 301
306 342
306 630
306 667
306 674
307 253
307 320
307 343
307 631
307 686
307 693
308 254
308 321
308 344
308 632
308 687
308 694
309 255
309 322
309 345
309 633
309 688
309 695
310 256
310 323
310 346
310 634
310 689
310 696
311 257
311 324
311 347
311 635
311 690
311 697
312 258
312 307
312 348
312 636
312 691
312 698
313 259
313 308
313 349
313 637
313 692
313 699
314 260
314 309
314 350
314 638
314 693
314 700
315 261
315 310
315 351
315 639
315 694
315 701
316 262
316 311
316 352
316 640
316 695
316 702
317 263
317 312
317 353
317 641
317 685
317 696
318 264
318 313
318 354
318 642
318 686
318 697
319 265
319 314
319 355
319 643
319 687
319 698
320 266
320 315
320 356
320 644
320 688
320 699
321 267
321 316
321 357
321 645
321 689
321 700
322 268
322 317
322 358
322 646
322 690
322 701
323 269
323 318
323 359
323 647
323 691
323 702
324 270
324 319
324 360
324 648
324 685
324 692
325 271
325 338
325 361
325 649
325 704
325 711
326 272
326 339
326 362
326 650
326 705
326 712
327 273
327 340
327 363
327 651
327 706
327 713
328 274
328 341
328 364
328 652
328 707
328 714
329 275
329 342
329 365
329 653
329 708
329 715
330 276
330 325
330 366
330 654
330 709
330 716
331 277
331 326
331 367
331 655
331 710
331 717
332 278
332 327
332 368
332 656
332 711
332 718
333 279
333 328
333 369
333 657
333 712
333 719
334 280
334 329
334 370
334 658
334 713
334 720
335 281
335 330
335 371
335 659
335 703
335 714
336 282
336 331
336 372
336 660
336 704
336 715
337 283
337 332
337 373
337 661
337 705
337 716
338 284
338 333
338 374
338 662
338 706
338 717
339 285
339 334
339 375
339 663
339 707
339 718
340 286
340 335
340 376
340 664
340 708
340 719
341 287
341 336
341 377
341 665
341 709
341 720
342 288
342 337
342 378
342 666
342 703
342 710
343 1
343 289
343 356
343 667
343 722
343 729
344 2
344 290
344 357
344 668
344 723
344 730
345 3
345 291
345 358
345 669
345 724
345 731
346 4
346 292
346 359
346 670
346 725
346 732
347 5
347 293
347 360
347 671
347 726
347 733
348 6
348 294
348 343
348 672
348 727
348 734
349 7
349 295
349 344
349 673
349 728
349 735
350 8
350 296
350 345
350 674
350 729
350 736
351 9
351 297
351 346
351 675
351 730
351 737
352 10
352 298
352 347
352 676
352 731
352 738
353 11
353 299
353 348
353 677
353 721
353 732
354 12
354 300
354 349
354 678
354 722
354 733
355 13
355 301
355 350
355 679
355 723
355 734
356 14
356 302
356 351
356 680
356 724
356 735
357 15
357 303
357 352
357 681
357 725
357 736
358 16
358 304
358 353
358 682
358 726
358 737
359 17
359 305
359 354
359 683
359 727
359 738
360 18
360 306
360 355
360 684
360 721
360 728
361 19
361 307
361 374
361 685
361 740
361 747
362 20
362 308
362 375
362 686
362 741
362 748
363 21
363 309
363 376
363 687
363 742
363 749
364 22
364 310
364 377
364 688
364 743
364 750
365 23
365 311
365 378
365 689
365 744
365 751
366 24
366 312
366 361
366 690
366 745
366 752
367 25
367 313
367 362
367 691
367 746
367 753
368 26
368 314
368 363
368 692
368 747
368 754
369 27
369 315
369 364
369 693
369 748
369 755
370 28
370 316
370 365
370 694
370 749
370 756
371 29
371 317
371 366
371 695
371 739
371 750
372 30
372 318
372 367
372 696
372 740
372 751
373 31
373 319
373 368
373 697
373 741
373 752
374 32
374 320
374 369
374 698
374 742
374 753
375 33
375 321
375 370
375 699
375 743
375 754
376 34
376 322
376 371
376 700
376 744
376 755
377 35
377 323
377 372
377 701
377 745
377 756
378 36
378 324
378 373
378 702
378 739
378 746
