%%MatrixMarket matrix coordinate pattern general
% [[90, 8, 10]] BB code, l=15, m=3, A=x^9+y+y^2, B=1+x^2+x^7 (Hz)
45 90 270
1 1
1 25
1 40
1 47
1 48
1 64
2 2
2 26
2 41
2 46
2 48
2 65
3 3
3 27
3 42
3 46
3 47
3 66
4 4
4 28
4 43
4 50
4 51
4 67
5 5
5 29
5 44
5 49
5 51
5 68
6 6
6 30
6 45
6 49
6 50
6 69
7 1
7 7
7 31
7 53
7 54
7 70
8 2
8 8
8 32
8 52
8 54
8 71
9 3
9 9
9 33
9 52
9 53
9 72
10 4
10 10
10 34
10 56
10 57
10 73
11 5
11 11
11 35
11 55
11 57
11 74
12 6
12 12
12 36
12 55
12 56
12 75
13 7
13 13
13 37
13 59
13 60
13 76
14 8
14 14
14 38
14 58
14 60
14 77
15 9
15 15
15 39
15 58
15 59
15 78
16 10
16 16
16 40
16 62
16 63
16 79
17 11
17 17
17 41
17 61
17 63
17 80
18 12
18 18
18 42
18 61
18 62
18 81
19 13
19 19
19 43
19 65
19 66
19 82
20 14
20 20
20 44
20 64
20 66
20 83
21 15
21 21
21 45
21 64
21 65
21 84
22 1
22 16
22 22
22 68
22 69
22 85
23 2
23 17
23 23
23 67
23 69
23 86
24 3
24 18
24 24
24 67
24 68
24 87
25 4
25 19
25 25
25 71
25 72
25 88
26 5
26 20
26 26
26 70
26 72
26 89
27 6
27 21
27 27
27 70
27 71
27 90
28 7
28 22
28 28
28 46
28 74
28 75
29 8
29 23
29 29
29 47
29 73
29 75
30 9
30 24
30 30
30 48
30 73
30 74
31 10
31 25
31 31
31 49
31 77
31 78
32 11
32 26
32 32
32 50
32 76
32 78
33 12
33 27
33 33
33 51
33 76
33 77
34 13
34 28
34 34
34 52
34 80
34 81
35 14
35 29
35 35
35 53
35 79
35 81
36 15
36 30
36 36
36 54
36 79
36 80
37 16
37 31
37 37
37 55
37 83
37 84
38 17
38 32
38 38
38 56
38 82
38 84
39 18
39 33
39 39
39 57
39 82
39 83
40 19
40 34
40 40
40 58
40 86
40 87
41 20
41 35
41 41
41 59
41 85
41 87
42 21
42 36
42 42
42 60
42 85
42 86
43 22
43 37
43 43
43 61
43 89
43 90
44 23
44 38
44 44
44 62
44 88
44 90
45 24
45 39
45 45
45 63
45 88
45 89
