%%MatrixMarket matrix coordinate pattern general
% [[90, 8, 10]] BB code, l=15, m=3, A=x^9+y+y^2, B=1+x^2+x^7 (Hx)
45 90 270
1 2
1 3
1 28
1 46
1 52
1 67
2 1
2 3
2 29
2 47
2 53
2 68
3 1
3 2
3 30
3 48
3 54
3 69
4 5
4 6
4 31
4 49
4 55
4 70
5 4
5 6
5 32
5 50
5 56
5 71
6 4
6 5
6 33
6 51
6 57
6 72
7 8
7 9
7 34
7 52
7 58
7 73
8 7
8 9
8 35
8 53
8 59
8 74
9 7
9 8
9 36
9 54
9 60
9 75
10 11
10 12
10 37
10 55
10 61
10 76
11 10
11 12
11 38
11 56
11 62
11 77
12 10
12 11
12 39
12 57
12 63
12 78
13 14
13 15
13 40
13 58
13 64
13 79
14 13
14 15
14 41
14 59
14 65
14 80
15 13
15 14
15 42
15 60
15 66
15 81
16 17
16 18
16 43
16 61
16 67
16 82
17 16
17 18
17 44
17 62
17 68
17 83
18 16
18 17
18 45
18 63
18 69
18 84
19 1
19 20
19 21
19 64
19 70
19 85
20 2
20 19
20 21
20 65
20 71
20 86
21 3
21 19
21 20
21 66
21 72
21 87
22 4
22 23
22 24
22 67
22 73
22 88
23 5
23 22
23 24
23 68
23 74
23 89
24 6
24 22
24 23
24 69
24 75
24 90
25 7
25 26
25 27
25 46
25 70
25 76
26 8
26 25
26 27
26 47
26 71
26 77
27 9
27 25
27 26
27 48
27 72
27 78
28 10
28 29
28 30
28 49
28 73
28 79
29 11
29 28
29 30
29 50
29 74
29 80
30 12
30 28
30 29
30 51
30 75
30 81
31 13
31 32
31 33
31 52
31 76
31 82
32 14
32 31
32 33
32 53
32 77
32 83
33 15
33 31
33 32
33 54
33 78
33 84
34 16
34 35
34 36
34 55
34 79
34 85
35 17
35 34
35 36
35 56
35 80
35 86
36 18
36 34
36 35
36 57
36 81
36 87
37 19
37 38
37 39
37 58
37 82
37 88
38 20
38 37
38 39
38 59
38 83
38 89
39 21
39 37
39 38
39 60
39 84
39 90
40 22
40 41
40 42
40 46
40 61
40 85
41 23
41 40
41 42
41 47
41 62
41 86
42 24
42 40
42 41
42 48
42 63
42 87
43 25
43 44
43 45
43 49
43 64
43 88
44 26
44 43
44 45
44 50
44 65
44 89
45 27
45 43
45 44
45 51
45 66
45 90
