%%MatrixMarket matrix coordinate pattern general
% [[288, 12, 18]] Double-Gross code, l=12, m=12, A=x^3+y^2+y^7, B=y^3+x+x^2 (Hx)
144 288 864
1 3
1 8
1 37
1 148
1 157
1 169
2 4
2 9
2 38
2 149
2 158
2 170
3 5
3 10
3 39
3 150
3 159
3 171
4 6
4 11
4 40
4 151
4 160
4 172
5 7
5 12
5 41
5 152
5 161
5 173
6 1
6 8
6 42
6 153
6 162
6 174
7 2
7 9
7 43
7 154
7 163
7 175
8 3
8 10
8 44
8 155
8 164
8 176
9 4
9 11
9 45
9 156
9 165
9 177
10 5
10 12
10 46
10 145
10 166
10 178
11 1
11 6
11 47
11 146
11 167
11 179
12 2
12 7
12 48
12 147
12 168
12 180
13 15
13 20
13 49
13 160
13 169
13 181
14 16
14 21
14 50
14 161
14 170
14 182
15 17
15 22
15 51
15 162
15 171
15 183
16 18
16 23
16 52
16 163
16 172
16 184
17 19
17 24
17 53
17 164
17 173
17 185
18 13
18 20
18 54
18 165
18 174
18 186
19 14
19 21
19 55
19 166
19 175
19 187
20 15
20 22
20 56
20 167
20 176
20 188
21 16
21 23
21 57
21 168
21 177
21 189
22 17
22 24
22 58
22 157
22 178
22 190
23 13
23 18
23 59
23 158
23 179
23 191
24 14
24 19
24 60
24 159
24 180
24 192
25 27
25 32
25 61
25 172
25 181
25 193
26 28
26 33
26 62
26 173
26 182
26 194
27 29
27 34
27 63
27 174
27 183
27 195
28 30
28 35
28 64
28 175
28 184
28 196
29 31
29 36
29 65
29 176
29 185
29 197
30 25
30 32
30 66
30 177
30 186
30 198
31 26
31 33
31 67
31 178
31 187
31 199
32 27
32 34
32 68
32 179
32 188
32 200
33 28
33 35
33 69
33 180
33 189
33 201
34 29
34 36
34 70
34 169
34 190
34 202
35 25
35 30
35 71
35 170
35 191
35 203
36 26
36 31
36 72
36 171
36 192
36 204
37 39
37 44
37 73
37 184
37 193
37 205
38 40
38 45
38 74
38 185
38 194
38 206
39 41
39 46
39 75
39 186
39 195
39 207
40 42
40 47
40 76
40 187
40 196
40 208
41 43
41 48
41 77
41 188
41 197
41 209
42 37
42 44
42 78
42 189
42 198
42 210
43 38
43 45
43 79
43 190
43 199
43 211
44 39
44 46
44 80
44 191
44 200
44 212
45 40
45 47
45 81
45 192
45 201
45 213
46 41
46 48
46 82
46 181
46 202
46 214
47 37
47 42
47 83
47 182
47 203
47 215
48 38
48 43
48 84
48 183
48 204
48 216
49 51
49 56
49 85
49 196
49 205
49 217
50 52
50 57
50 86
50 197
50 206
50 218
51 53
51 58
51 87
51 198
51 207
51 219
52 54
52 59
52 88
52 199
52 208
52 220
53 55
53 60
53 89
53 200
53 209
53 221
54 49
54 56
54 90
54 201
54 210
54 222
55 50
55 57
55 91
55 202
55 211
55 223
56 51
56 58
56 92
56 203
56 212
56 224
57 52
57 59
57 93
57 204
57 213
57 225
58 53
58 60
58 94
58 193
58 214
58 226
59 49
59 54
59 95
59 194
59 215
59 227
60 50
60 55
60 96
60 195
60 216
60 228
61 63
61 68
61 97
61 208
61 217
61 229
62 64
62 69
62 98
62 209
62 218
62 230
63 65
63 70
63 99
63 210
63 219
63 231
64 66
64 71
64 100
64 211
64 220
64 232
65 67
65 72
65 101
65 212
65 221
65 233
66 61
66 68
66 102
66 213
66 222
66 234
67 62
67 69
67 103
67 214
67 223
67 235
68 63
68 70
68 104
68 215
68 224
68 236
69 64
69 71
69 105
69 216
69 225
69 237
70 65
70 72
70 106
70 205
70 226
70 238
71 61
71 66
71 107
71 206
71 227
71 239
72 62
72 67
72 108
72 207
72 228
72 240
73 75
73 80
73 109
73 220
73 229
73 241
74 76
74 81
74 110
74 221
74 230
74 242
75 77
75 82
75 111
75 222
75 231
75 243
76 78
76 83
76 112
76 223
76 232
76 244
77 79
77 84
77 113
77 224
77 233
77 245
78 73
78 80
78 114
78 225
78 234
78 246
79 74
79 81
79 115
79 226
79 235
79 247
80 75
80 82
80 116
80 227
80 236
80 248
81 76
81 83
81 117
81 228
81 237
81 249
82 77
82 84
82 118
82 217
82 238
82 250
83 73
83 78
83 119
83 218
83 239
83 251
84 74
84 79
84 120
84 219
84 240
84 252
85 87
85 92
85 121
85 232
85 241
85 253
86 88
86 93
86 122
86 233
86 242
86 254
87 89
87 94
87 123
87 234
87 243
87 255
88 90
88 95
88 124
88 235
88 244
88 256
89 91
89 96
89 125
89 236
89 245
89 257
90 85
90 92
90 126
90 237
90 246
90 258
91 86
91 93
91 127
91 238
91 247
91 259
92 87
92 94
92 128
92 239
92 248
92 260
93 88
93 95
93 129
93 240
93 249
93 261
94 89
94 96
94 130
94 229
94 250
94 262
95 85
95 90
95 131
95 230
95 251
95 263
96 86
96 91
96 132
96 231
96 252
96 264
97 99
97 104
97 133
97 244
97 253
97 265
98 100
98 105
98 134
98 245
98 254
98 266
99 101
99 106
99 135
99 246
99 255
99 267
100 102
100 107
100 136
100 247
100 256
100 268
101 103
101 108
101 137
101 248
101 257
101 269
102 97
102 104
102 138
102 249
102 258
102 270
103 98
103 105
103 139
103 250
103 259
103 271
104 99
104 106
104 140
104 251
104 260
104 272
105 100
105 107
105 141
105 252
105 261
105 273
106 101
106 108
106 142
106 241
106 262
106 274
107 97
107 102
107 143
107 242
107 263
107 275
108 98
108 103
108 144
108 243
108 264
108 276
109 1
109 111
109 116
109 256
109 265
109 277
110 2
110 112
110 117
110 257
110 266
110 278
111 3
111 113
111 118
111 258
111 267
111 279
112 4
112 114
112 119
112 259
112 268
112 280
113 5
113 115
113 120
113 260
113 269
113 281
114 6
114 109
114 116
114 261
114 270
114 282
115 7
115 110
115 117
115 262
115 271
115 283
116 8
116 111
116 118
116 263
116 272
116 284
117 9
117 112
117 119
117 264
117 273
117 285
118 10
118 113
118 120
118 253
118 274
118 286
119 11
119 109
119 114
119 254
119 275
119 287
120 12
120 110
120 115
120 255
120 276
120 288
121 13
121 123
121 128
121 145
121 268
121 277
122 14
122 124
122 129
122 146
122 269
122 278
123 15
123 125
123 130
123 147
123 270
123 279
124 16
124 126
124 131
124 148
124 271
124 280
125 17
125 127
125 132
125 149
125 272
125 281
126 18
126 121
126 128
126 150
126 273
126 282
127 19
127 122
127 129
127 151
127 274
127 283
128 20
128 123
128 130
128 152
128 275
128 284
129 21
129 124
129 131
129 153
129 276
129 285
130 22
130 125
130 132
130 154
130 265
130 286
131 23
131 121
131 126
131 155
131 266
131 287
132 24
132 122
132 127
132 156
132 267
132 288
133 25
133 135
133 140
133 145
133 157
133 280
134 26
134 136
134 141
134 146
134 158
134 281
135 27
135 137
135 142
135 147
135 159
135 282
136 28
136 138
136 143
136 148
136 160
136 283
137 29
137 139
137 144
137 149
137 161
137 284
138 30
138 133
138 140
138 150
138 162
138 285
139 31
139 134
139 141
139 151
139 163
139 286
140 32
140 135
140 142
140 152
140 164
140 287
141 33
141 136
141 143
141 153
141 165
141 288
142 34
142 137
142 144
142 154
142 166
142 277
143 35
143 133
143 138
143 155
143 167
143 278
144 36
144 134
144 139
144 156
144 168
144 279
