%%MatrixMarket matrix coordinate pattern general
% [[288, 12, 18]] Double-Gross code, l=12, m=12, A=x^3+y^2+y^7, B=y^3+x+x^2 (Hz)
144 288 864
1 10
1 121
1 133
1 150
1 155
1 253
2 11
2 122
2 134
2 151
2 156
2 254
3 12
3 123
3 135
3 145
3 152
3 255
4 1
4 124
4 136
4 146
4 153
4 256
5 2
5 125
5 137
5 147
5 154
5 257
6 3
6 126
6 138
6 148
6 155
6 258
7 4
7 127
7 139
7 149
7 156
7 259
8 5
8 128
8 140
8 145
8 150
8 260
9 6
9 129
9 141
9 146
9 151
9 261
10 7
10 130
10 142
10 147
10 152
10 262
11 8
11 131
11 143
11 148
11 153
11 263
12 9
12 132
12 144
12 149
12 154
12 264
13 1
13 22
13 133
13 162
13 167
13 265
14 2
14 23
14 134
14 163
14 168
14 266
15 3
15 24
15 135
15 157
15 164
15 267
16 4
16 13
16 136
16 158
16 165
16 268
17 5
17 14
17 137
17 159
17 166
17 269
18 6
18 15
18 138
18 160
18 167
18 270
19 7
19 16
19 139
19 161
19 168
19 271
20 8
20 17
20 140
20 157
20 162
20 272
21 9
21 18
21 141
21 158
21 163
21 273
22 10
22 19
22 142
22 159
22 164
22 274
23 11
23 20
23 143
23 160
23 165
23 275
24 12
24 21
24 144
24 161
24 166
24 276
25 1
25 13
25 34
25 174
25 179
25 277
26 2
26 14
26 35
26 175
26 180
26 278
27 3
27 15
27 36
27 169
27 176
27 279
28 4
28 16
28 25
28 170
28 177
28 280
29 5
29 17
29 26
29 171
29 178
29 281
30 6
30 18
30 27
30 172
30 179
30 282
31 7
31 19
31 28
31 173
31 180
31 283
32 8
32 20
32 29
32 169
32 174
32 284
33 9
33 21
33 30
33 170
33 175
33 285
34 10
34 22
34 31
34 171
34 176
34 286
35 11
35 23
35 32
35 172
35 177
35 287
36 12
36 24
36 33
36 173
36 178
36 288
37 13
37 25
37 46
37 145
37 186
37 191
38 14
38 26
38 47
38 146
38 187
38 192
39 15
39 27
39 48
39 147
39 181
39 188
40 16
40 28
40 37
40 148
40 182
40 189
41 17
41 29
41 38
41 149
41 183
41 190
42 18
42 30
42 39
42 150
42 184
42 191
43 19
43 31
43 40
43 151
43 185
43 192
44 20
44 32
44 41
44 152
44 181
44 186
45 21
45 33
45 42
45 153
45 182
45 187
46 22
46 34
46 43
46 154
46 183
46 188
47 23
47 35
47 44
47 155
47 184
47 189
48 24
48 36
48 45
48 156
48 185
48 190
49 25
49 37
49 58
49 157
49 198
49 203
50 26
50 38
50 59
50 158
50 199
50 204
51 27
51 39
51 60
51 159
51 193
51 200
52 28
52 40
52 49
52 160
52 194
52 201
53 29
53 41
53 50
53 161
53 195
53 202
54 30
54 42
54 51
54 162
54 196
54 203
55 31
55 43
55 52
55 163
55 197
55 204
56 32
56 44
56 53
56 164
56 193
56 198
57 33
57 45
57 54
57 165
57 194
57 199
58 34
58 46
58 55
58 166
58 195
58 200
59 35
59 47
59 56
59 167
59 196
59 201
60 36
60 48
60 57
60 168
60 197
60 202
61 37
61 49
61 70
61 169
61 210
61 215
62 38
62 50
62 71
62 170
62 211
62 216
63 39
63 51
63 72
63 171
63 205
63 212
64 40
64 52
64 61
64 172
64 206
64 213
65 41
65 53
65 62
65 173
65 207
65 214
66 42
66 54
66 63
66 174
66 208
66 215
67 43
67 55
67 64
67 175
67 209
67 216
68 44
68 56
68 65
68 176
68 205
68 210
69 45
69 57
69 66
69 177
69 206
69 211
70 46
70 58
70 67
70 178
70 207
70 212
71 47
71 59
71 68
71 179
71 208
71 213
72 48
72 60
72 69
72 180
72 209
72 214
73 49
73 61
73 82
73 181
73 222
73 227
74 50
74 62
74 83
74 182
74 223
74 228
75 51
75 63
75 84
75 183
75 217
75 224
76 52
76 64
76 73
76 184
76 218
76 225
77 53
77 65
77 74
77 185
77 219
77 226
78 54
78 66
78 75
78 186
78 220
78 227
79 55
79 67
79 76
79 187
79 221
79 228
80 56
80 68
80 77
80 188
80 217
80 222
81 57
81 69
81 78
81 189
81 218
81 223
82 58
82 70
82 79
82 190
82 219
82 224
83 59
83 71
83 80
83 191
83 220
83 225
84 60
84 72
84 81
84 192
84 221
84 226
85 61
85 73
85 94
85 193
85 234
85 239
86 62
86 74
86 95
86 194
86 235
86 240
87 63
87 75
87 96
87 195
87 229
87 236
88 64
88 76
88 85
88 196
88 230
88 237
89 65
89 77
89 86
89 197
89 231
89 238
90 66
90 78
90 87
90 198
90 232
90 239
91 67
91 79
91 88
91 199
91 233
91 240
92 68
92 80
92 89
92 200
92 229
92 234
93 69
93 81
93 90
93 201
93 230
93 235
94 70
94 82
94 91
94 202
94 231
94 236
95 71
95 83
95 92
95 203
95 232
95 237
96 72
96 84
96 93
96 204
96 233
96 238
97 73
97 85
97 106
97 205
97 246
97 251
98 74
98 86
98 107
98 206
98 247
98 252
99 75
99 87
99 108
99 207
99 241
99 248
100 76
100 88
100 97
100 208
100 242
100 249
101 77
101 89
101 98
101 209
101 243
101 250
102 78
102 90
102 99
102 210
102 244
102 251
103 79
103 91
103 100
103 211
103 245
103 252
104 80
104 92
104 101
104 212
104 241
104 246
105 81
105 93
105 102
105 213
105 242
105 247
106 82
106 94
106 103
106 214
106 243
106 248
107 83
107 95
107 104
107 215
107 244
107 249
108 84
108 96
108 105
108 216
108 245
108 250
109 85
109 97
109 118
109 217
109 258
109 263
110 86
110 98
110 119
110 218
110 259
110 264
111 87
111 99
111 120
111 219
111 253
111 260
112 88
112 100
112 109
112 220
112 254
112 261
113 89
113 101
113 110
113 221
113 255
113 262
114 90
114 102
114 111
114 222
114 256
114 263
115 91
115 103
115 112
115 223
115 257
115 264
116 92
116 104
116 113
116 224
116 253
116 258
117 93
117 105
117 114
117 225
117 254
117 259
118 94
118 106
118 115
118 226
118 255
118 260
119 95
119 107
119 116
119 227
119 256
119 261
120 96
120 108
120 117
120 228
120 257
120 262
121 97
121 109
121 130
121 229
121 270
121 275
122 98
122 110
122 131
122 230
122 271
122 276
123 99
123 111
123 132
123 231
123 265
123 272
124 100
124 112
124 121
124 232
124 266
124 273
125 101
125 113
125 122
125 233
125 267
125 274
126 102
126 114
126 123
126 234
126 268
126 275
127 103
127 115
127 124
127 235
127 269
127 276
128 104
128 116
128 125
128 236
128 265
128 270
129 105
129 117
129 126
129 237
129 266
129 271
130 106
130 118
130 127
130 238
130 267
130 272
131 107
131 119
131 128
131 239
131 268
131 273
132 108
132 120
132 129
132 240
132 269
132 274
133 109
133 121
133 142
133 241
133 282
133 287
134 110
134 122
134 143
134 242
134 283
134 288
135 111
135 123
135 144
135 243
135 277
135 284
136 112
136 124
136 133
136 244
136 278
136 285
137 113
137 125
137 134
137 245
137 279
137 286
138 114
138 126
138 135
138 246
138 280
138 287
139 115
139 127
139 136
139 247
139 281
139 288
140 116
140 128
140 137
140 248
140 277
140 282
141 117
141 129
141 138
141 249
141 278
141 283
142 118
142 130
142 139
142 250
142 279
142 284
143 119
143 131
143 140
143 251
143 280
143 285
144 120
144 132
144 141
144 252
144 281
144 286
