%%MatrixMarket matrix coordinate pattern general
% [[144, 12, 12]] Gross code, l=12, m=6, A=x^3+y+y^2, B=y^3+x+x^2 (Hz)
72 144 432
1 4
1 61
1 67
1 77
1 78
1 127
2 5
2 62
2 68
2 73
2 78
2 128
3 6
3 63
3 69
3 73
3 74
3 129
4 1
4 64
4 70
4 74
4 75
4 130
5 2
5 65
5 71
5 75
5 76
5 131
6 3
6 66
6 72
6 76
6 77
6 132
7 1
7 10
7 67
7 83
7 84
7 133
8 2
8 11
8 68
8 79
8 84
8 134
9 3
9 12
9 69
9 79
9 80
9 135
10 4
10 7
10 70
10 80
10 81
10 136
11 5
11 8
11 71
11 81
11 82
11 137
12 6
12 9
12 72
12 82
12 83
12 138
13 1
13 7
13 16
13 89
13 90
13 139
14 2
14 8
14 17
14 85
14 90
14 140
15 3
15 9
15 18
15 85
15 86
15 141
16 4
16 10
16 13
16 86
16 87
16 142
17 5
17 11
17 14
17 87
17 88
17 143
18 6
18 12
18 15
18 88
18 89
18 144
19 7
19 13
19 22
19 73
19 95
19 96
20 8
20 14
20 23
20 74
20 91
20 96
21 9
21 15
21 24
21 75
21 91
21 92
22 10
22 16
22 19
22 76
22 92
22 93
23 11
23 17
23 20
23 77
23 93
23 94
24 12
24 18
24 21
24 78
24 94
24 95
25 13
25 19
25 28
25 79
25 101
25 102
26 14
26 20
26 29
26 80
26 97
26 102
27 15
27 21
27 30
27 81
27 97
27 98
28 16
28 22
28 25
28 82
28 98
28 99
29 17
29 23
29 26
29 83
29 99
29 100
30 18
30 24
30 27
30 84
30 100
30 101
31 19
31 25
31 34
31 85
31 107
31 108
32 20
32 26
32 35
32 86
32 103
32 108
33 21
33 27
33 36
33 87
33 103
33 104
34 22
34 28
34 31
34 88
34 104
34 105
35 23
35 29
35 32
35 89
35 105
35 106
36 24
36 30
36 33
36 90
36 106
36 107
37 25
37 31
37 40
37 91
37 113
37 114
38 26
38 32
38 41
38 92
38 109
38 114
39 27
39 33
39 42
39 93
39 109
39 110
40 28
40 34
40 37
40 94
40 110
40 111
41 29
41 35
41 38
41 95
41 111
41 112
42 30
42 36
42 39
42 96
42 112
42 113
43 31
43 37
43 46
43 97
43 119
43 120
44 32
44 38
44 47
44 98
44 115
44 120
45 33
45 39
45 48
45 99
45 115
45 116
46 34
46 40
46 43
46 100
46 116
46 117
47 35
47 41
47 44
47 101
47 117
47 118
48 36
48 42
48 45
48 102
48 118
48 119
49 37
49 43
49 52
49 103
49 125
49 126
50 38
50 44
50 53
50 104
50 121
50 126
51 39
51 45
51 54
51 105
51 121
51 122
52 40
52 46
52 49
52 106
52 122
52 123
53 41
53 47
53 50
53 107
53 123
53 124
54 42
54 48
54 51
54 108
54 124
54 125
55 43
55 49
55 58
55 109
55 131
55 132
56 44
56 50
56 59
56 110
56 127
56 132
57 45
57 51
57 60
57 111
57 127
57 128
58 46
58 52
58 55
58 112
58 128
58 129
59 47
59 53
59 56
59 113
59 129
59 130
60 48
60 54
60 57
60 114
60 130
60 131
61 49
61 55
61 64
61 115
61 137
61 138
62 50
62 56
62 65
62 116
62 133
62 138
63 51
63 57
63 66
63 117
63 133
63 134
64 52
64 58
64 61
64 118
64 134
64 135
65 53
65 59
65 62
65 119
65 135
65 136
66 54
66 60
66 63
66 120
66 136
66 137
67 55
67 61
67 70
67 121
67 143
67 144
68 56
68 62
68 71
68 122
68 139
68 144
69 57
69 63
69 72
69 123
69 139
69 140
70 58
70 64
70 67
70 124
70 140
70 141
71 59
71 65
71 68
71 125
71 141
71 142
72 60
72 66
72 69
72 126
72 142
72 143
