%%MatrixMarket matrix coordinate pattern general
% [[144, 12, 12]] Gross code, l=12, m=6, A=x^3+y+y^2, B=y^3+x+x^2 (Hx)
72 144 432
1 2
1 3
1 19
1 76
1 79
1 85
2 3
2 4
2 20
2 77
2 80
2 86
3 4
3 5
3 21
3 78
3 81
3 87
4 5
4 6
4 22
4 73
4 82
4 88
5 1
5 6
5 23
5 74
5 83
5 89
6 1
6 2
6 24
6 75
6 84
6 90
7 8
7 9
7 25
7 82
7 85
7 91
8 9
8 10
8 26
8 83
8 86
8 92
9 10
9 11
9 27
9 84
9 87
9 93
10 11
10 12
10 28
10 79
10 88
10 94
11 7
11 12
11 29
11 80
11 89
11 95
12 7
12 8
12 30
12 81
12 90
12 96
13 14
13 15
13 31
13 88
13 91
13 97
14 15
14 16
14 32
14 89
14 92
14 98
15 16
15 17
15 33
15 90
15 93
15 99
16 17
16 18
16 34
16 85
16 94
16 100
17 13
17 18
17 35
17 86
17 95
17 101
18 13
18 14
18 36
18 87
18 96
18 102
19 20
19 21
19 37
19 94
19 97
19 103
20 21
20 22
20 38
20 95
20 98
20 104
21 22
21 23
21 39
21 96
21 99
21 105
22 23
22 24
22 40
22 91
22 100
22 106
23 19
23 24
23 41
23 92
23 101
23 107
24 19
24 20
24 42
24 93
24 102
24 108
25 26
25 27
25 43
25 100
25 103
25 109
26 27
26 28
26 44
26 101
26 104
26 110
27 28
27 29
27 45
27 102
27 105
27 111
28 29
28 30
28 46
28 97
28 106
28 112
29 25
29 30
29 47
29 98
29 107
29 113
30 25
30 26
30 48
30 99
30 108
30 114
31 32
31 33
31 49
31 106
31 109
31 115
32 33
32 34
32 50
32 107
32 110
32 116
33 34
33 35
33 51
33 108
33 111
33 117
34 35
34 36
34 52
34 103
34 112
34 118
35 31
35 36
35 53
35 104
35 113
35 119
36 31
36 32
36 54
36 105
36 114
36 120
37 38
37 39
37 55
37 112
37 115
37 121
38 39
38 40
38 56
38 113
38 116
38 122
39 40
39 41
39 57
39 114
39 117
39 123
40 41
40 42
40 58
40 109
40 118
40 124
41 37
41 42
41 59
41 110
41 119
41 125
42 37
42 38
42 60
42 111
42 120
42 126
43 44
43 45
43 61
43 118
43 121
43 127
44 45
44 46
44 62
44 119
44 122
44 128
45 46
45 47
45 63
45 120
45 123
45 129
46 47
46 48
46 64
46 115
46 124
46 130
47 43
47 48
47 65
47 116
47 125
47 131
48 43
48 44
48 66
48 117
48 126
48 132
49 50
49 51
49 67
49 124
49 127
49 133
50 51
50 52
50 68
50 125
50 128
50 134
51 52
51 53
51 69
51 126
51 129
51 135
52 53
52 54
52 70
52 121
52 130
52 136
53 49
53 54
53 71
53 122
53 131
53 137
54 49
54 50
54 72
54 123
54 132
54 138
55 1
55 56
55 57
55 130
55 133
55 139
56 2
56 57
56 58
56 131
56 134
56 140
57 3
57 58
57 59
57 132
57 135
57 141
58 4
58 59
58 60
58 127
58 136
58 142
59 5
59 55
59 60
59 128
59 137
59 143
60 6
60 55
60 56
60 129
60 138
60 144
61 7
61 62
61 63
61 73
61 136
61 139
62 8
62 63
62 64
62 74
62 137
62 140
63 9
63 64
63 65
63 75
63 138
63 141
64 10
64 65
64 66
64 76
64 133
64 142
65 11
65 61
65 66
65 77
65 134
65 143
66 12
66 61
66 62
66 78
66 135
66 144
67 13
67 68
67 69
67 73
67 79
67 142
68 14
68 69
68 70
68 74
68 80
68 143
69 15
69 70
69 71
69 75
69 81
69 144
70 16
70 71
70 72
70 76
70 82
70 139
71 17
71 67
71 72
71 77
71 83
71 140
72 18
72 67
72 68
72 78
72 84
72 141
