%%MatrixMarket matrix coordinate pattern general
% [[210, 42, 8]] Mitten code over C7 x S3 (seed=2) (Lz)
42 210 924
1 1
1 85
1 87
1 91
1 93
1 95
1 96
1 97
1 98
1 103
1 104
1 105
1 108
1 110
1 113
1 114
1 115
1 118
1 121
1 122
1 124
1 125
2 2
2 86
2 88
2 92
2 94
2 95
2 96
2 97
2 98
2 103
2 104
2 106
2 107
2 109
2 113
2 114
2 116
2 117
2 121
2 122
2 123
2 126
3 3
3 85
3 87
3 91
3 92
3 93
3 94
3 99
3 101
3 103
3 105
3 106
3 107
3 110
3 112
3 113
3 117
3 120
3 122
3 123
3 125
3 126
4 4
4 86
4 88
4 91
4 92
4 93
4 94
4 100
4 102
4 104
4 105
4 106
4 108
4 109
4 111
4 114
4 118
4 119
4 121
4 124
4 125
4 126
5 5
5 89
5 90
5 92
5 94
5 95
5 96
5 99
5 101
5 104
5 105
5 107
5 108
5 110
5 111
5 112
5 115
5 119
5 121
5 123
5 124
5 125
6 6
6 89
6 90
6 91
6 93
6 95
6 96
6 100
6 102
6 103
6 106
6 107
6 108
6 109
6 111
6 112
6 116
6 120
6 122
6 123
6 124
6 126
7 7
7 85
7 86
7 88
7 89
7 91
7 93
7 97
7 99
7 101
7 102
7 103
7 104
7 109
7 110
7 111
7 114
7 116
7 119
7 120
7 121
7 124
8 8
8 85
8 86
8 87
8 90
8 92
8 94
8 98
8 100
8 101
8 102
8 103
8 104
8 109
8 110
8 112
8 113
8 115
8 119
8 120
8 122
8 123
9 9
9 86
9 87
9 89
9 90
9 91
9 93
9 97
9 98
9 99
9 100
9 105
9 107
9 109
9 111
9 112
9 113
9 116
9 118
9 119
9 123
9 126
10 10
10 85
10 88
10 89
10 90
10 92
10 94
10 97
10 98
10 99
10 100
10 106
10 108
10 110
10 111
10 112
10 114
10 115
10 117
10 120
10 124
10 125
11 11
11 85
11 87
11 88
11 89
11 95
11 96
11 98
11 100
11 101
11 102
11 105
11 107
11 110
11 111
11 113
11 114
11 116
11 117
11 118
11 121
11 125
12 12
12 86
12 87
12 88
12 90
12 95
12 96
12 97
12 99
12 101
12 102
12 106
12 108
12 109
12 112
12 113
12 114
12 115
12 117
12 118
12 122
12 126
13 13
13 85
13 88
13 91
13 92
13 94
13 95
13 97
13 99
13 103
13 105
13 107
13 108
13 109
13 110
13 115
13 116
13 117
13 120
13 122
13 125
13 126
14 14
14 86
14 87
14 91
14 92
14 93
14 96
14 98
14 100
14 104
14 106
14 107
14 108
14 109
14 110
14 115
14 116
14 118
14 119
14 121
14 125
14 126
15 15
15 87
15 90
15 92
15 93
15 95
15 96
15 97
15 99
15 103
15 104
15 105
15 106
15 111
15 113
15 115
15 117
15 118
15 119
15 122
15 124
15 125
16 16
16 88
16 89
16 91
16 94
16 95
16 96
16 98
16 100
16 103
16 104
16 105
16 106
16 112
16 114
16 116
16 117
16 118
16 120
16 121
16 123
16 126
17 17
17 85
17 89
17 91
17 93
17 94
17 95
17 101
17 102
17 104
17 106
17 107
17 108
17 111
17 113
17 116
17 117
17 119
17 120
17 122
17 123
17 124
18 18
18 86
18 90
18 92
18 93
18 94
18 96
18 101
18 102
18 103
18 105
18 107
18 108
18 112
18 114
18 115
18 118
18 119
18 120
18 121
18 123
18 124
19 19
19 86
19 89
19 90
19 91
19 94
19 97
19 98
19 100
19 101
19 103
19 105
19 109
19 111
19 113
19 114
19 115
19 116
19 121
19 122
19 123
19 126
20 20
20 85
20 89
20 90
20 92
20 93
20 97
20 98
20 99
20 102
20 104
20 106
20 110
20 112
20 113
20 114
20 115
20 116
20 121
20 122
20 124
20 125
21 21
21 86
21 88
21 89
21 93
21 96
21 98
21 99
21 101
21 102
21 103
21 105
21 109
21 110
21 111
21 112
21 117
21 119
21 121
21 123
21 124
21 125
22 22
22 85
22 87
22 90
22 94
22 95
22 97
22 100
22 101
22 102
22 104
22 106
22 109
22 110
22 111
22 112
22 118
22 120
22 122
22 123
22 124
22 126
23 23
23 86
23 87
23 88
23 91
23 95
23 97
23 99
23 100
23 101
23 107
23 108
23 110
23 112
23 113
23 114
23 117
23 119
23 122
23 123
23 125
23 126
24 24
24 85
24 87
24 88
24 92
24 96
24 98
24 99
24 100
24 102
24 107
24 108
24 109
24 111
24 113
24 114
24 118
24 120
24 121
24 124
24 125
24 126
25 25
25 85
25 86
25 87
25 90
25 92
25 95
25 96
25 97
25 100
25 103
25 104
25 106
25 107
25 109
25 111
25 115
25 117
25 119
25 120
25 121
25 122
26 26
26 85
26 86
26 88
26 89
26 91
26 95
26 96
26 98
26 99
26 103
26 104
26 105
26 108
26 110
26 112
26 116
26 118
26 119
26 120
26 121
26 122
27 27
27 85
27 87
27 88
27 89
27 92
27 94
27 95
27 99
27 102
27 104
27 105
27 107
27 108
27 109
27 111
27 115
27 116
27 117
27 118
27 123
27 125
28 28
28 86
28 87
28 88
28 90
28 91
28 93
28 96
28 100
28 101
28 103
28 106
28 107
28 108
28 110
28 112
28 115
28 116
28 117
28 118
28 124
28 126
29 29
29 86
29 87
29 89
29 90
29 92
29 93
29 94
29 97
29 101
29 103
29 105
29 106
29 107
29 113
29 114
29 116
29 118
29 119
29 120
29 123
29 125
30 30
30 85
30 88
30 89
30 90
30 91
30 93
30 94
30 98
30 102
30 104
30 105
30 106
30 108
30 113
30 114
30 115
30 117
30 119
30 120
30 124
30 126
31 31
31 85
31 86
31 91
31 92
31 93
31 96
31 98
31 101
31 102
31 103
31 106
31 109
31 110
31 112
31 113
31 115
31 117
31 121
31 123
31 125
31 126
32 32
32 85
32 86
32 91
32 92
32 94
32 95
32 97
32 101
32 102
32 104
32 105
32 109
32 110
32 111
32 114
32 116
32 118
32 122
32 124
32 125
32 126
33 33
33 87
33 89
33 91
33 93
33 94
33 95
33 98
33 100
33 101
33 105
33 108
33 110
33 111
33 113
33 114
33 115
33 117
33 121
33 122
33 123
33 124
34 34
34 88
34 90
34 92
34 93
34 94
34 96
34 97
34 99
34 102
34 106
34 107
34 109
34 112
34 113
34 114
34 116
34 118
34 121
34 122
34 123
34 124
35 35
35 87
35 89
35 92
35 93
35 95
35 96
35 98
35 99
35 100
35 103
35 107
35 109
35 111
35 112
35 113
35 119
35 120
35 122
35 124
35 125
35 126
36 36
36 88
36 90
36 91
36 94
36 95
36 96
36 97
36 99
36 100
36 104
36 108
36 110
36 111
36 112
36 114
36 119
36 120
36 121
36 123
36 125
36 126
37 37
37 85
37 87
37 89
37 90
37 91
37 92
37 97
37 98
37 99
37 102
37 104
37 107
37 108
37 109
37 112
37 115
37 116
37 118
37 119
37 121
37 123
38 38
38 86
38 88
38 89
38 90
38 91
38 92
38 97
38 98
38 100
38 101
38 103
38 107
38 108
38 110
38 111
38 115
38 116
38 117
38 120
38 122
38 124
39 39
39 85
39 86
39 87
39 88
39 93
39 95
39 97
39 99
39 100
39 101
39 104
39 106
39 107
39 111
39 114
39 116
39 117
39 119
39 120
39 121
39 123
40 40
40 85
40 86
40 87
40 88
40 94
40 96
40 98
40 99
40 100
40 102
40 103
40 105
40 108
40 112
40 113
40 115
40 118
40 119
40 120
40 122
40 124
41 41
41 86
41 88
41 89
41 90
41 93
41 95
41 98
41 99
41 101
41 102
41 104
41 105
41 106
41 109
41 113
41 115
41 117
41 118
41 119
41 125
41 126
42 42
42 85
42 87
42 89
42 90
42 94
42 96
42 97
42 100
42 101
42 102
42 103
42 105
42 106
42 110
42 114
42 116
42 117
42 118
42 120
42 125
42 126
