%%MatrixMarket matrix coordinate pattern general
% [[150, 30, 8]] Mitten code over C5 x S3 (seed=2, flagship demo) A=[[(3, 17, 21), (0, 11, 12)]], B=[[(4, 14, 27), (0, 5, 17)]] (Hx)
60 150 540
1 5
1 17
1 24
1 61
1 79
1 90
1 124
1 131
1 141
2 6
2 18
2 23
2 62
2 80
2 89
2 126
2 129
2 143
3 2
3 14
3 22
3 63
3 81
3 88
3 122
3 132
3 139
4 1
4 13
4 21
4 64
4 82
4 87
4 125
4 127
4 144
5 4
5 16
5 20
5 65
5 83
5 86
5 121
5 130
5 140
6 3
6 15
6 19
6 66
6 84
6 85
6 123
6 128
6 142
7 11
7 23
7 30
7 66
7 67
7 85
7 130
7 137
7 147
8 12
8 24
8 29
8 65
8 68
8 86
8 132
8 135
8 149
9 8
9 20
9 28
9 64
9 69
9 87
9 128
9 138
9 145
10 7
10 19
10 27
10 63
10 70
10 88
10 131
10 133
10 150
11 10
11 22
11 26
11 62
11 71
11 89
11 127
11 136
11 146
12 9
12 21
12 25
12 61
12 72
12 90
12 129
12 134
12 148
13 6
13 17
13 29
13 61
13 72
13 73
13 123
13 136
13 143
14 5
14 18
14 30
14 62
14 71
14 74
14 125
14 138
14 141
15 4
15 14
15 26
15 63
15 70
15 75
15 121
15 134
15 144
16 3
16 13
16 25
16 64
16 69
16 76
16 126
16 137
16 139
17 2
17 16
17 28
17 65
17 68
17 77
17 122
17 133
17 142
18 1
18 15
18 27
18 66
18 67
18 78
18 124
18 135
18 140
19 5
19 12
19 23
19 67
19 78
19 79
19 129
19 142
19 149
20 6
20 11
20 24
20 68
20 77
20 80
20 131
20 144
20 147
21 2
21 10
21 20
21 69
21 76
21 81
21 127
21 140
21 150
22 1
22 9
22 19
22 70
22 75
22 82
22 132
22 143
22 145
23 4
23 8
23 22
23 71
23 74
23 83
23 128
23 139
23 148
24 3
24 7
24 21
24 72
24 73
24 84
24 130
24 141
24 146
25 11
25 18
25 29
25 73
25 84
25 85
25 125
25 135
25 148
26 12
26 17
26 30
26 74
26 83
26 86
26 123
26 137
26 150
27 8
27 16
27 26
27 75
27 82
27 87
27 126
27 133
27 146
28 7
28 15
28 25
28 76
28 81
28 88
28 121
28 138
28 149
29 10
29 14
29 28
29 77
29 80
29 89
29 124
29 134
29 145
30 9
30 13
30 27
30 78
30 79
30 90
30 122
30 136
30 147
31 35
31 47
31 54
31 91
31 109
31 120
31 121
31 126
31 144
32 36
32 48
32 53
32 92
32 110
32 119
32 122
32 124
32 142
33 32
33 44
33 52
33 93
33 111
33 118
33 123
33 125
33 143
34 31
34 43
34 51
34 94
34 112
34 117
34 122
34 124
34 140
35 34
35 46
35 50
35 95
35 113
35 116
35 123
35 125
35 141
36 33
36 45
36 49
36 96
36 114
36 115
36 121
36 126
36 139
37 41
37 53
37 60
37 96
37 97
37 115
37 127
37 132
37 150
38 42
38 54
38 59
38 95
38 98
38 116
38 128
38 130
38 148
39 38
39 50
39 58
39 94
39 99
39 117
39 129
39 131
39 149
40 37
40 49
40 57
40 93
40 100
40 118
40 128
40 130
40 146
41 40
41 52
41 56
41 92
41 101
41 119
41 129
41 131
41 147
42 39
42 51
42 55
42 91
42 102
42 120
42 127
42 132
42 145
43 36
43 47
43 59
43 91
43 102
43 103
43 126
43 133
43 138
44 35
44 48
44 60
44 92
44 101
44 104
44 124
44 134
44 136
45 34
45 44
45 56
45 93
45 100
45 105
45 125
45 135
45 137
46 33
46 43
46 55
46 94
46 99
46 106
46 122
46 134
46 136
47 32
47 46
47 58
47 95
47 98
47 107
47 123
47 135
47 137
48 31
48 45
48 57
48 96
48 97
48 108
48 121
48 133
48 138
49 35
49 42
49 53
49 97
49 108
49 109
49 132
49 139
49 144
50 36
50 41
50 54
50 98
50 107
50 110
50 130
50 140
50 142
51 32
51 40
51 50
51 99
51 106
51 111
51 131
51 141
51 143
52 31
52 39
52 49
52 100
52 105
52 112
52 128
52 140
52 142
53 34
53 38
53 52
53 101
53 104
53 113
53 129
53 141
53 143
54 33
54 37
54 51
54 102
54 103
54 114
54 127
54 139
54 144
55 41
55 48
55 59
55 103
55 114
55 115
55 138
55 145
55 150
56 42
56 47
56 60
56 104
56 113
56 116
56 136
56 146
56 148
57 38
57 46
57 56
57 105
57 112
57 117
57 137
57 147
57 149
58 37
58 45
58 55
58 106
58 111
58 118
58 134
58 146
58 148
59 40
59 44
59 58
59 107
59 110
59 119
59 135
59 147
59 149
60 39
60 43
60 57
60 108
60 109
60 120
60 133
60 145
60 150
