%%MatrixMarket matrix coordinate pattern general
% [[90, 18, 6]] Mitten code over C3 x S3 (seed=2) (Lx)
18 90 144
1 1
1 19
1 23
1 25
1 27
1 29
1 30
1 36
2 2
2 20
2 21
2 26
2 27
2 28
2 29
2 34
3 3
3 21
3 24
3 25
3 27
3 29
3 30
3 35
4 4
4 19
4 22
4 25
4 26
4 28
4 30
4 32
5 5
5 22
5 23
5 26
5 27
5 28
5 29
5 33
6 6
6 20
6 24
6 25
6 26
6 28
6 30
6 31
7 7
7 24
7 25
7 29
7 31
7 33
7 35
7 36
8 8
8 22
8 26
8 27
8 32
8 33
8 34
8 35
9 9
9 23
9 27
9 30
9 31
9 33
9 35
9 36
10 10
10 20
10 25
10 28
10 31
10 32
10 34
10 36
11 11
11 21
11 28
11 29
11 32
11 33
11 34
11 35
12 12
12 19
12 26
12 30
12 31
12 32
12 34
12 36
13 13
13 19
13 21
13 23
13 24
13 30
13 31
13 35
14 14
14 20
14 21
14 22
14 23
14 28
14 32
14 33
15 15
15 19
15 21
15 23
15 24
15 29
15 33
15 36
16 16
16 19
16 20
16 22
16 24
16 26
16 31
16 34
17 17
17 20
17 21
17 22
17 23
17 27
17 34
17 35
18 18
18 19
18 20
18 22
18 24
18 25
18 32
18 36
