%%MatrixMarket matrix coordinate pattern general
% [[210, 42, 8]] Mitten code over C7 x S3 (seed=2) A=[[(21, 26, 31), (0, 6, 40)]], B=[[(18, 30, 32), (0, 1, 25)]] (Hz)
84 210 756
1 19
1 31
1 33
1 43
1 44
1 68
1 190
1 195
1 200
2 20
2 32
2 35
2 43
2 44
2 67
2 189
2 196
2 199
3 21
3 31
3 33
3 45
3 46
3 70
3 192
3 193
3 203
4 22
4 34
4 36
4 45
4 46
4 69
4 191
4 194
4 204
5 23
5 32
5 35
5 47
5 48
5 72
5 187
5 198
5 201
6 24
6 34
6 36
6 47
6 48
6 71
6 188
6 197
6 202
7 25
7 37
7 39
7 49
7 50
7 74
7 196
7 201
7 206
8 26
8 38
8 41
8 49
8 50
8 73
8 195
8 202
8 205
9 27
9 37
9 39
9 51
9 52
9 76
9 198
9 199
9 209
10 28
10 40
10 42
10 51
10 52
10 75
10 197
10 200
10 210
11 29
11 38
11 41
11 53
11 54
11 78
11 193
11 204
11 207
12 30
12 40
12 42
12 53
12 54
12 77
12 194
12 203
12 208
13 1
13 3
13 31
13 55
13 56
13 80
13 170
13 202
13 207
14 2
14 5
14 32
14 55
14 56
14 79
14 169
14 201
14 208
15 1
15 3
15 33
15 57
15 58
15 82
15 173
15 204
15 205
16 4
16 6
16 34
16 57
16 58
16 81
16 174
16 203
16 206
17 2
17 5
17 35
17 59
17 60
17 84
17 171
17 199
17 210
18 4
18 6
18 36
18 59
18 60
18 83
18 172
18 200
18 209
19 7
19 9
19 37
19 44
19 61
19 62
19 171
19 176
19 208
20 8
20 11
20 38
20 43
20 61
20 62
20 172
20 175
20 207
21 7
21 9
21 39
21 46
21 63
21 64
21 169
21 179
21 210
22 10
22 12
22 40
22 45
22 63
22 64
22 170
22 180
22 209
23 8
23 11
23 41
23 48
23 65
23 66
23 174
23 177
23 205
24 10
24 12
24 42
24 47
24 65
24 66
24 173
24 178
24 206
25 1
25 13
25 15
25 50
25 67
25 68
25 172
25 177
25 182
26 2
26 14
26 17
26 49
26 67
26 68
26 171
26 178
26 181
27 3
27 13
27 15
27 52
27 69
27 70
27 174
27 175
27 185
28 4
28 16
28 18
28 51
28 69
28 70
28 173
28 176
28 186
29 5
29 14
29 17
29 54
29 71
29 72
29 169
29 180
29 183
30 6
30 16
30 18
30 53
30 71
30 72
30 170
30 179
30 184
31 7
31 19
31 21
31 56
31 73
31 74
31 178
31 183
31 188
32 8
32 20
32 23
32 55
32 73
32 74
32 177
32 184
32 187
33 9
33 19
33 21
33 58
33 75
33 76
33 180
33 181
33 191
34 10
34 22
34 24
34 57
34 75
34 76
34 179
34 182
34 192
35 11
35 20
35 23
35 60
35 77
35 78
35 175
35 186
35 189
36 12
36 22
36 24
36 59
36 77
36 78
36 176
36 185
36 190
37 13
37 25
37 27
37 62
37 79
37 80
37 184
37 189
37 194
38 14
38 26
38 29
38 61
38 79
38 80
38 183
38 190
38 193
39 15
39 25
39 27
39 64
39 81
39 82
39 186
39 187
39 197
40 16
40 28
40 30
40 63
40 81
40 82
40 185
40 188
40 198
41 17
41 26
41 29
41 66
41 83
41 84
41 181
41 192
41 195
42 18
42 28
42 30
42 65
42 83
42 84
42 182
42 191
42 196
43 103
43 115
43 117
43 127
43 128
43 152
43 169
43 175
43 209
44 104
44 116
44 119
44 127
44 128
44 151
44 170
44 176
44 210
45 105
45 115
45 117
45 129
45 130
45 154
45 171
45 177
45 206
46 106
46 118
46 120
46 129
46 130
46 153
46 172
46 178
46 205
47 107
47 116
47 119
47 131
47 132
47 156
47 173
47 179
47 208
48 108
48 118
48 120
48 131
48 132
48 155
48 174
48 180
48 207
49 109
49 121
49 123
49 133
49 134
49 158
49 173
49 175
49 181
50 110
50 122
50 125
50 133
50 134
50 157
50 174
50 176
50 182
51 111
51 121
51 123
51 135
51 136
51 160
51 170
51 177
51 183
52 112
52 124
52 126
52 135
52 136
52 159
52 169
52 178
52 184
53 113
53 122
53 125
53 137
53 138
53 162
53 172
53 179
53 185
54 114
54 124
54 126
54 137
54 138
54 161
54 171
54 180
54 186
55 85
55 87
55 115
55 139
55 140
55 164
55 179
55 181
55 187
56 86
56 89
56 116
56 139
56 140
56 163
56 180
56 182
56 188
57 85
57 87
57 117
57 141
57 142
57 166
57 176
57 183
57 189
58 88
58 90
58 118
58 141
58 142
58 165
58 175
58 184
58 190
59 86
59 89
59 119
59 143
59 144
59 168
59 178
59 185
59 191
60 88
60 90
60 120
60 143
60 144
60 167
60 177
60 186
60 192
61 91
61 93
61 121
61 128
61 145
61 146
61 185
61 187
61 193
62 92
62 95
62 122
62 127
62 145
62 146
62 186
62 188
62 194
63 91
63 93
63 123
63 130
63 147
63 148
63 182
63 189
63 195
64 94
64 96
64 124
64 129
64 147
64 148
64 181
64 190
64 196
65 92
65 95
65 125
65 132
65 149
65 150
65 184
65 191
65 197
66 94
66 96
66 126
66 131
66 149
66 150
66 183
66 192
66 198
67 85
67 97
67 99
67 134
67 151
67 152
67 191
67 193
67 199
68 86
68 98
68 101
68 133
68 151
68 152
68 192
68 194
68 200
69 87
69 97
69 99
69 136
69 153
69 154
69 188
69 195
69 201
70 88
70 100
70 102
70 135
70 153
70 154
70 187
70 196
70 202
71 89
71 98
71 101
71 138
71 155
71 156
71 190
71 197
71 203
72 90
72 100
72 102
72 137
72 155
72 156
72 189
72 198
72 204
73 91
73 103
73 105
73 140
73 157
73 158
73 197
73 199
73 205
74 92
74 104
74 107
74 139
74 157
74 158
74 198
74 200
74 206
75 93
75 103
75 105
75 142
75 159
75 160
75 194
75 201
75 207
76 94
76 106
76 108
76 141
76 159
76 160
76 193
76 202
76 208
77 95
77 104
77 107
77 144
77 161
77 162
77 196
77 203
77 209
78 96
78 106
78 108
78 143
78 161
78 162
78 195
78 204
78 210
79 97
79 109
79 111
79 146
79 163
79 164
79 169
79 203
79 205
80 98
80 110
80 113
80 145
80 163
80 164
80 170
80 204
80 206
81 99
81 109
81 111
81 148
81 165
81 166
81 171
81 200
81 207
82 100
82 112
82 114
82 147
82 165
82 166
82 172
82 199
82 208
83 101
83 110
83 113
83 150
83 167
83 168
83 173
83 202
83 209
84 102
84 112
84 114
84 149
84 167
84 168
84 174
84 201
84 210
