%%MatrixMarket matrix coordinate pattern general
% [[150, 30, 8]] Mitten code over C5 x S3 (seed=2, flagship demo) A=[[(3, 17, 21), (0, 11, 12)]], B=[[(4, 14, 27), (0, 5, 17)]] (Hz)
60 150 540
1 5
1 15
1 28
1 31
1 36
1 48
1 124
1 138
1 142
2 3
2 17
2 30
2 32
2 34
2 46
2 123
2 137
2 141
3 6
3 13
3 26
3 33
3 35
3 47
3 126
3 136
3 144
4 1
4 18
4 29
4 32
4 34
4 44
4 125
4 135
4 143
5 4
5 14
5 25
5 33
5 35
5 45
5 121
5 134
5 139
6 2
6 16
6 27
6 31
6 36
6 43
6 122
6 133
6 140
7 4
7 11
7 21
7 37
7 42
7 54
7 130
7 144
7 148
8 6
8 9
8 23
8 38
8 40
8 52
8 129
8 143
8 147
9 2
9 12
9 19
9 39
9 41
9 53
9 132
9 142
9 150
10 5
10 7
10 24
10 38
10 40
10 50
10 131
10 141
10 149
11 1
11 10
11 20
11 39
11 41
11 51
11 127
11 140
11 145
12 3
12 8
12 22
12 37
12 42
12 49
12 128
12 139
12 146
13 10
13 17
13 27
13 43
13 48
13 60
13 124
13 136
13 150
14 12
14 15
14 29
14 44
14 46
14 58
14 123
14 135
14 149
15 8
15 18
15 25
15 45
15 47
15 59
15 126
15 138
15 148
16 11
16 13
16 30
16 44
16 46
16 56
16 125
16 137
16 147
17 7
17 16
17 26
17 45
17 47
17 57
17 121
17 133
17 146
18 9
18 14
18 28
18 43
18 48
18 55
18 122
18 134
18 145
19 3
19 16
19 23
19 36
19 49
19 54
19 126
19 130
19 142
20 5
20 18
20 21
20 34
20 50
20 52
20 125
20 129
20 141
21 1
21 14
21 24
21 35
21 51
21 53
21 124
21 132
21 144
22 6
22 17
22 19
22 32
22 50
22 52
22 123
22 131
22 143
23 2
23 13
23 22
23 33
23 51
23 53
23 122
23 127
23 139
24 4
24 15
24 20
24 31
24 49
24 54
24 121
24 128
24 140
25 9
25 22
25 29
25 42
25 55
25 60
25 132
25 136
25 148
26 11
26 24
26 27
26 40
26 56
26 58
26 131
26 135
26 147
27 7
27 20
27 30
27 41
27 57
27 59
27 130
27 138
27 150
28 12
28 23
28 25
28 38
28 56
28 58
28 129
28 137
28 149
29 8
29 19
29 28
29 39
29 57
29 59
29 128
29 133
29 145
30 10
30 21
30 26
30 37
30 55
30 60
30 127
30 134
30 146
31 65
31 75
31 88
31 91
31 96
31 108
31 121
31 132
31 133
32 63
32 77
32 90
32 92
32 94
32 106
32 122
32 131
32 134
33 66
33 73
33 86
33 93
33 95
33 107
33 123
33 130
33 135
34 61
34 78
34 89
34 92
34 94
34 104
34 124
34 129
34 136
35 64
35 74
35 85
35 93
35 95
35 105
35 125
35 128
35 137
36 62
36 76
36 87
36 91
36 96
36 103
36 126
36 127
36 138
37 64
37 71
37 81
37 97
37 102
37 114
37 127
37 138
37 139
38 66
38 69
38 83
38 98
38 100
38 112
38 128
38 137
38 140
39 62
39 72
39 79
39 99
39 101
39 113
39 129
39 136
39 141
40 65
40 67
40 84
40 98
40 100
40 110
40 130
40 135
40 142
41 61
41 70
41 80
41 99
41 101
41 111
41 131
41 134
41 143
42 63
42 68
42 82
42 97
42 102
42 109
42 132
42 133
42 144
43 70
43 77
43 87
43 103
43 108
43 120
43 133
43 144
43 145
44 72
44 75
44 89
44 104
44 106
44 118
44 134
44 143
44 146
45 68
45 78
45 85
45 105
45 107
45 119
45 135
45 142
45 147
46 71
46 73
46 90
46 104
46 106
46 116
46 136
46 141
46 148
47 67
47 76
47 86
47 105
47 107
47 117
47 137
47 140
47 149
48 69
48 74
48 88
48 103
48 108
48 115
48 138
48 139
48 150
49 63
49 76
49 83
49 96
49 109
49 114
49 121
49 139
49 150
50 65
50 78
50 81
50 94
50 110
50 112
50 122
50 140
50 149
51 61
51 74
51 84
51 95
51 111
51 113
51 123
51 141
51 148
52 66
52 77
52 79
52 92
52 110
52 112
52 124
52 142
52 147
53 62
53 73
53 82
53 93
53 111
53 113
53 125
53 143
53 146
54 64
54 75
54 80
54 91
54 109
54 114
54 126
54 144
54 145
55 69
55 82
55 89
55 102
55 115
55 120
55 126
55 127
55 145
56 71
56 84
56 87
56 100
56 116
56 118
56 125
56 128
56 146
57 67
57 80
57 90
57 101
57 117
57 119
57 124
57 129
57 147
58 72
58 83
58 85
58 98
58 116
58 118
58 123
58 130
58 148
59 68
59 79
59 88
59 99
59 117
59 119
59 122
59 131
59 149
60 70
60 81
60 86
60 97
60 115
60 120
60 121
60 132
60 150
