%%MatrixMarket matrix coordinate pattern general
% [[270, 54, 10]] Mitten code over C9 x S3 (seed=2) (Lz)
54 270 540
1 1
1 109
1 115
1 122
1 124
1 134
1 151
1 153
1 157
1 159
2 2
2 110
2 116
2 121
2 123
2 133
2 152
2 154
2 158
2 160
3 3
3 111
3 117
3 125
3 126
3 137
3 151
3 153
3 157
3 159
4 4
4 112
4 118
4 125
4 126
4 138
4 152
4 154
4 158
4 160
5 5
5 113
5 119
5 121
5 123
5 135
5 155
5 156
5 161
5 162
6 6
6 114
6 120
6 122
6 124
6 136
6 155
6 156
6 161
6 162
7 7
7 109
7 111
7 115
7 121
7 128
7 130
7 140
7 157
7 159
8 8
8 110
8 112
8 116
8 122
8 127
8 129
8 139
8 158
8 160
9 9
9 109
9 111
9 117
9 123
9 131
9 132
9 143
9 157
9 159
10 10
10 110
10 112
10 118
10 124
10 131
10 132
10 144
10 158
10 160
11 11
11 113
11 114
11 119
11 125
11 127
11 129
11 141
11 161
11 162
12 12
12 113
12 114
12 120
12 126
12 128
12 130
12 142
12 161
12 162
13 13
13 109
13 111
13 115
13 117
13 121
13 127
13 134
13 136
13 146
14 14
14 110
14 112
14 116
14 118
14 122
14 128
14 133
14 135
14 145
15 15
15 109
15 111
15 115
15 117
15 123
15 129
15 137
15 138
15 149
16 16
16 110
16 112
16 116
16 118
16 124
16 130
16 137
16 138
16 150
17 17
17 113
17 114
17 119
17 120
17 125
17 131
17 133
17 135
17 147
18 18
18 113
18 114
18 119
18 120
18 126
18 132
18 134
18 136
18 148
19 19
19 115
19 117
19 121
19 123
19 127
19 133
19 140
19 142
19 152
20 20
20 116
20 118
20 122
20 124
20 128
20 134
20 139
20 141
20 151
21 21
21 115
21 117
21 121
21 123
21 129
21 135
21 143
21 144
21 155
22 22
22 116
22 118
22 122
22 124
22 130
22 136
22 143
22 144
22 156
23 23
23 119
23 120
23 125
23 126
23 131
23 137
23 139
23 141
23 153
24 24
24 119
24 120
24 125
24 126
24 132
24 138
24 140
24 142
24 154
25 25
25 121
25 123
25 127
25 129
25 133
25 139
25 146
25 148
25 158
26 26
26 122
26 124
26 128
26 130
26 134
26 140
26 145
26 147
26 157
27 27
27 121
27 123
27 127
27 129
27 135
27 141
27 149
27 150
27 161
28 28
28 122
28 124
28 128
28 130
28 136
28 142
28 149
28 150
28 162
29 29
29 125
29 126
29 131
29 132
29 137
29 143
29 145
29 147
29 159
30 30
30 125
30 126
30 131
30 132
30 138
30 144
30 146
30 148
30 160
31 31
31 110
31 127
31 129
31 133
31 135
31 139
31 145
31 152
31 154
32 32
32 109
32 128
32 130
32 134
32 136
32 140
32 146
32 151
32 153
33 33
33 113
33 127
33 129
33 133
33 135
33 141
33 147
33 155
33 156
34 34
34 114
34 128
34 130
34 134
34 136
34 142
34 148
34 155
34 156
35 35
35 111
35 131
35 132
35 137
35 138
35 143
35 149
35 151
35 153
36 36
36 112
36 131
36 132
36 137
36 138
36 144
36 150
36 152
36 154
37 37
37 116
37 133
37 135
37 139
37 141
37 145
37 151
37 158
37 160
38 38
38 115
38 134
38 136
38 140
38 142
38 146
38 152
38 157
38 159
39 39
39 119
39 133
39 135
39 139
39 141
39 147
39 153
39 161
39 162
40 40
40 120
40 134
40 136
40 140
40 142
40 148
40 154
40 161
40 162
41 41
41 117
41 137
41 138
41 143
41 144
41 149
41 155
41 157
41 159
42 42
42 118
42 137
42 138
42 143
42 144
42 150
42 156
42 158
42 160
43 43
43 110
43 112
43 122
43 139
43 141
43 145
43 147
43 151
43 157
44 44
44 109
44 111
44 121
44 140
44 142
44 146
44 148
44 152
44 158
45 45
45 113
45 114
45 125
45 139
45 141
45 145
45 147
45 153
45 159
46 46
46 113
46 114
46 126
46 140
46 142
46 146
46 148
46 154
46 160
47 47
47 109
47 111
47 123
47 143
47 144
47 149
47 150
47 155
47 161
48 48
48 110
48 112
48 124
48 143
48 144
48 149
48 150
48 156
48 162
49 49
49 109
49 116
49 118
49 128
49 145
49 147
49 151
49 153
49 157
50 50
50 110
50 115
50 117
50 127
50 146
50 148
50 152
50 154
50 158
51 51
51 111
51 119
51 120
51 131
51 145
51 147
51 151
51 153
51 159
52 52
52 112
52 119
52 120
52 132
52 146
52 148
52 152
52 154
52 160
53 53
53 113
53 115
53 117
53 129
53 149
53 150
53 155
53 156
53 161
54 54
54 114
54 116
54 118
54 130
54 149
54 150
54 155
54 156
54 162
