%%MatrixMarket matrix coordinate pattern general
% [[330, 66, 6]] Mitten code over C11 x S3 (seed=2) (Lx)
66 330 264
1 1
1 89
1 116
1 131
2 2
2 87
2 115
2 129
3 3
3 90
3 118
3 132
4 4
4 85
4 117
4 127
5 5
5 88
5 120
5 130
6 6
6 86
6 119
6 128
7 7
7 71
7 95
7 122
8 8
8 69
8 93
8 121
9 9
9 72
9 96
9 124
10 10
10 67
10 91
10 123
11 11
11 70
11 94
11 126
12 12
12 68
12 92
12 125
13 13
13 77
13 101
13 128
14 14
14 75
14 99
14 127
15 15
15 78
15 102
15 130
16 16
16 73
16 97
16 129
17 17
17 76
17 100
17 132
18 18
18 74
18 98
18 131
19 19
19 68
19 83
19 107
20 20
20 67
20 81
20 105
21 21
21 70
21 84
21 108
22 22
22 69
22 79
22 103
23 23
23 72
23 82
23 106
24 24
24 71
24 80
24 104
25 25
25 74
25 89
25 113
26 26
26 73
26 87
26 111
27 27
27 76
27 90
27 114
28 28
28 75
28 85
28 109
29 29
29 78
29 88
29 112
30 30
30 77
30 86
30 110
31 31
31 80
31 95
31 119
32 32
32 79
32 93
32 117
33 33
33 82
33 96
33 120
34 34
34 81
34 91
34 115
35 35
35 84
35 94
35 118
36 36
36 83
36 92
36 116
37 37
37 86
37 101
37 125
38 38
38 85
38 99
38 123
39 39
39 88
39 102
39 126
40 40
40 87
40 97
40 121
41 41
41 90
41 100
41 124
42 42
42 89
42 98
42 122
43 43
43 92
43 107
43 131
44 44
44 91
44 105
44 129
45 45
45 94
45 108
45 132
46 46
46 93
46 103
46 127
47 47
47 96
47 106
47 130
48 48
48 95
48 104
48 128
49 49
49 71
49 98
49 113
50 50
50 69
50 97
50 111
51 51
51 72
51 100
51 114
52 52
52 67
52 99
52 109
53 53
53 70
53 102
53 112
54 54
54 68
54 101
54 110
55 55
55 77
55 104
55 119
56 56
56 75
56 103
56 117
57 57
57 78
57 106
57 120
58 58
58 73
58 105
58 115
59 59
59 76
59 108
59 118
60 60
60 74
60 107
60 116
61 61
61 83
61 110
61 125
62 62
62 81
62 109
62 123
63 63
63 84
63 112
63 126
64 64
64 79
64 111
64 121
65 65
65 82
65 114
65 124
66 66
66 80
66 113
66 122
