%%MatrixMarket matrix coordinate pattern general
% [[270, 54, 10]] Mitten code over C9 x S3 (seed=2) A=[[(12, 18, 37), (0, 2, 12)]], B=[[(14, 21, 52), (0, 11, 42)]] (Hx)
108 270 972
1 20
1 37
1 43
1 109
1 111
1 151
1 226
1 257
1 261
2 19
2 38
2 44
2 110
2 112
2 152
2 228
2 255
2 263
3 23
3 39
3 45
3 109
3 111
3 153
3 224
3 258
3 259
4 24
4 40
4 46
4 110
4 112
4 154
4 227
4 253
4 264
5 21
5 41
5 47
5 113
5 114
5 155
5 223
5 256
5 260
6 22
6 42
6 48
6 113
6 114
6 156
6 225
6 254
6 262
7 26
7 43
7 49
7 115
7 117
7 157
7 232
7 263
7 267
8 25
8 44
8 50
8 116
8 118
8 158
8 234
8 261
8 269
9 29
9 45
9 51
9 115
9 117
9 159
9 230
9 264
9 265
10 30
10 46
10 52
10 116
10 118
10 160
10 233
10 259
10 270
11 27
11 47
11 53
11 119
11 120
11 161
11 229
11 262
11 266
12 28
12 48
12 54
12 119
12 120
12 162
12 231
12 260
12 268
13 1
13 32
13 49
13 109
13 121
13 123
13 219
13 238
13 269
14 2
14 31
14 50
14 110
14 122
14 124
14 221
14 240
14 267
15 3
15 35
15 51
15 111
15 121
15 123
15 217
15 236
15 270
16 4
16 36
16 52
16 112
16 122
16 124
16 222
16 239
16 265
17 5
17 33
17 53
17 113
17 125
17 126
17 218
17 235
17 268
18 6
18 34
18 54
18 114
18 125
18 126
18 220
18 237
18 266
19 1
19 7
19 38
19 115
19 127
19 129
19 221
19 225
19 244
20 2
20 8
20 37
20 116
20 128
20 130
20 219
20 227
20 246
21 3
21 9
21 41
21 117
21 127
21 129
21 222
21 223
21 242
22 4
22 10
22 42
22 118
22 128
22 130
22 217
22 228
22 245
23 5
23 11
23 39
23 119
23 131
23 132
23 220
23 224
23 241
24 6
24 12
24 40
24 120
24 131
24 132
24 218
24 226
24 243
25 7
25 13
25 44
25 121
25 133
25 135
25 227
25 231
25 250
26 8
26 14
26 43
26 122
26 134
26 136
26 225
26 233
26 252
27 9
27 15
27 47
27 123
27 133
27 135
27 228
27 229
27 248
28 10
28 16
28 48
28 124
28 134
28 136
28 223
28 234
28 251
29 11
29 17
29 45
29 125
29 137
29 138
29 226
29 230
29 247
30 12
30 18
30 46
30 126
30 137
30 138
30 224
30 232
30 249
31 13
31 19
31 50
31 127
31 139
31 141
31 233
31 237
31 256
32 14
32 20
32 49
32 128
32 140
32 142
32 231
32 239
32 258
33 15
33 21
33 53
33 129
33 139
33 141
33 234
33 235
33 254
34 16
34 22
34 54
34 130
34 140
34 142
34 229
34 240
34 257
35 17
35 23
35 51
35 131
35 143
35 144
35 232
35 236
35 253
36 18
36 24
36 52
36 132
36 143
36 144
36 230
36 238
36 255
37 2
37 19
37 25
37 133
37 145
37 147
37 239
37 243
37 262
38 1
38 20
38 26
38 134
38 146
38 148
38 237
38 245
38 264
39 5
39 21
39 27
39 135
39 145
39 147
39 240
39 241
39 260
40 6
40 22
40 28
40 136
40 146
40 148
40 235
40 246
40 263
41 3
41 23
41 29
41 137
41 149
41 150
41 238
41 242
41 259
42 4
42 24
42 30
42 138
42 149
42 150
42 236
42 244
42 261
43 8
43 25
43 31
43 139
43 151
43 153
43 245
43 249
43 268
44 7
44 26
44 32
44 140
44 152
44 154
44 243
44 251
44 270
45 11
45 27
45 33
45 141
45 151
45 153
45 246
45 247
45 266
46 12
46 28
46 34
46 142
46 152
46 154
46 241
46 252
46 269
47 9
47 29
47 35
47 143
47 155
47 156
47 244
47 248
47 265
48 10
48 30
48 36
48 144
48 155
48 156
48 242
48 250
48 267
49 14
49 31
49 37
49 145
49 157
49 159
49 220
49 251
49 255
50 13
50 32
50 38
50 146
50 158
50 160
50 222
50 249
50 257
51 17
51 33
51 39
51 147
51 157
51 159
51 218
51 252
51 253
52 18
52 34
52 40
52 148
52 158
52 160
52 221
52 247
52 258
53 15
53 35
53 41
53 149
53 161
53 162
53 217
53 250
53 254
54 16
54 36
54 42
54 150
54 161
54 162
54 219
54 248
54 256
55 74
55 91
55 97
55 163
55 165
55 205
55 217
55 229
55 270
56 73
56 92
56 98
56 164
56 166
56 206
56 218
56 230
56 268
57 77
57 93
57 99
57 163
57 165
57 207
57 219
57 231
57 269
58 78
58 94
58 100
58 164
58 166
58 208
58 220
58 232
58 266
59 75
59 95
59 101
59 167
59 168
59 209
59 221
59 233
59 267
60 76
60 96
60 102
60 167
60 168
60 210
60 222
60 234
60 265
61 80
61 97
61 103
61 169
61 171
61 211
61 222
61 223
61 235
62 79
62 98
62 104
62 170
62 172
62 212
62 220
62 224
62 236
63 83
63 99
63 105
63 169
63 171
63 213
63 221
63 225
63 237
64 84
64 100
64 106
64 170
64 172
64 214
64 218
64 226
64 238
65 81
65 101
65 107
65 173
65 174
65 215
65 219
65 227
65 239
66 82
66 102
66 108
66 173
66 174
66 216
66 217
66 228
66 240
67 55
67 86
67 103
67 163
67 175
67 177
67 228
67 229
67 241
68 56
68 85
68 104
68 164
68 176
68 178
68 226
68 230
68 242
69 57
69 89
69 105
69 165
69 175
69 177
69 227
69 231
69 243
70 58
70 90
70 106
70 166
70 176
70 178
70 224
70 232
70 244
71 59
71 87
71 107
71 167
71 179
71 180
71 225
71 233
71 245
72 60
72 88
72 108
72 168
72 179
72 180
72 223
72 234
72 246
73 55
73 61
73 92
73 169
73 181
73 183
73 234
73 235
73 247
74 56
74 62
74 91
74 170
74 182
74 184
74 232
74 236
74 248
75 57
75 63
75 95
75 171
75 181
75 183
75 233
75 237
75 249
76 58
76 64
76 96
76 172
76 182
76 184
76 230
76 238
76 250
77 59
77 65
77 93
77 173
77 185
77 186
77 231
77 239
77 251
78 60
78 66
78 94
78 174
78 185
78 186
78 229
78 240
78 252
79 61
79 67
79 98
79 175
79 187
79 189
79 240
79 241
79 253
80 62
80 68
80 97
80 176
80 188
80 190
80 238
80 242
80 254
81 63
81 69
81 101
81 177
81 187
81 189
81 239
81 243
81 255
82 64
82 70
82 102
82 178
82 188
82 190
82 236
82 244
82 256
83 65
83 71
83 99
83 179
83 191
83 192
83 237
83 245
83 257
84 66
84 72
84 100
84 180
84 191
84 192
84 235
84 246
84 258
85 67
85 73
85 104
85 181
85 193
85 195
85 246
85 247
85 259
86 68
86 74
86 103
86 182
86 194
86 196
86 244
86 248
86 260
87 69
87 75
87 107
87 183
87 193
87 195
87 245
87 249
87 261
88 70
88 76
88 108
88 184
88 194
88 196
88 242
88 250
88 262
89 71
89 77
89 105
89 185
89 197
89 198
89 243
89 251
89 263
90 72
90 78
90 106
90 186
90 197
90 198
90 241
90 252
90 264
91 56
91 73
91 79
91 187
91 199
91 201
91 252
91 253
91 265
92 55
92 74
92 80
92 188
92 200
92 202
92 250
92 254
92 266
93 59
93 75
93 81
93 189
93 199
93 201
93 251
93 255
93 267
94 60
94 76
94 82
94 190
94 200
94 202
94 248
94 256
94 268
95 57
95 77
95 83
95 191
95 203
95 204
95 249
95 257
95 269
96 58
96 78
96 84
96 192
96 203
96 204
96 247
96 258
96 270
97 62
97 79
97 85
97 193
97 205
97 207
97 217
97 258
97 259
98 61
98 80
98 86
98 194
98 206
98 208
98 218
98 256
98 260
99 65
99 81
99 87
99 195
99 205
99 207
99 219
99 257
99 261
100 66
100 82
100 88
100 196
100 206
100 208
100 220
100 254
100 262
101 63
101 83
101 89
101 197
101 209
101 210
101 221
101 255
101 263
102 64
102 84
102 90
102 198
102 209
102 210
102 222
102 253
102 264
103 68
103 85
103 91
103 199
103 211
103 213
103 223
103 264
103 265
104 67
104 86
104 92
104 200
104 212
104 214
104 224
104 262
104 266
105 71
105 87
105 93
105 201
105 211
105 213
105 225
105 263
105 267
106 72
106 88
106 94
106 202
106 212
106 214
106 226
106 260
106 268
107 69
107 89
107 95
107 203
107 215
107 216
107 227
107 261
107 269
108 70
108 90
108 96
108 204
108 215
108 216
108 228
108 259
108 270
