%%MatrixMarket matrix coordinate pattern general
% [[270, 54, 10]] Mitten code over C9 x S3 (seed=2) (Lx)
54 270 1188
1 1
1 57
1 58
1 59
1 62
1 64
1 65
1 68
1 69
1 71
1 74
1 76
1 81
1 87
1 88
1 94
1 95
1 98
1 101
1 104
1 105
1 106
2 2
2 57
2 59
2 60
2 61
2 63
2 66
2 67
2 69
2 71
2 73
2 78
2 83
2 89
2 90
2 93
2 96
2 97
2 99
2 103
2 107
2 108
3 3
3 55
3 56
3 60
3 62
3 64
3 66
3 67
3 70
3 72
3 74
3 76
3 79
3 85
3 86
3 92
3 96
3 100
3 102
3 103
3 104
3 106
4 4
4 55
4 59
4 60
4 61
4 63
4 65
4 67
4 69
4 72
4 75
4 77
4 84
4 89
4 90
4 91
4 95
4 97
4 99
4 105
4 107
4 108
5 5
5 55
5 56
5 58
5 61
5 64
5 66
5 68
5 70
5 72
5 73
5 78
5 80
5 85
5 86
5 91
5 94
5 100
5 102
5 103
5 104
5 108
6 6
6 56
6 57
6 58
6 62
6 63
6 65
6 68
6 70
6 71
6 75
6 77
6 82
6 87
6 88
6 92
6 93
6 98
6 101
6 105
6 106
6 107
7 7
7 56
7 57
7 58
7 63
7 64
7 65
7 68
7 70
7 71
7 74
7 75
7 77
7 80
7 82
7 87
7 93
7 94
7 100
7 101
7 104
7 107
8 8
8 55
8 59
8 60
8 63
8 65
8 66
8 67
8 69
8 72
8 73
8 75
8 77
8 79
8 84
8 89
8 95
8 96
8 99
8 102
8 103
8 105
9 9
9 55
9 56
9 58
9 61
9 62
9 66
9 68
9 70
9 72
9 73
9 76
9 78
9 80
9 82
9 85
9 91
9 92
9 98
9 102
9 106
9 108
10 10
10 57
10 59
10 60
10 61
10 65
10 66
10 67
10 69
10 71
10 73
10 75
10 78
10 81
10 83
10 90
10 95
10 96
10 97
10 101
10 103
10 105
11 11
11 55
11 56
11 60
11 61
11 62
11 64
11 67
11 70
11 72
11 74
11 76
11 78
11 79
11 84
11 86
11 91
11 92
11 97
11 100
11 106
11 108
12 12
12 57
12 58
12 59
12 62
12 63
12 64
12 68
12 69
12 71
12 74
12 76
12 77
12 81
12 83
12 88
12 93
12 94
12 98
12 99
12 104
12 107
13 13
13 56
13 59
13 62
13 63
13 64
13 69
13 70
13 71
13 74
13 76
13 77
13 80
13 81
13 83
13 86
13 88
13 93
13 99
13 100
13 106
13 107
14 14
14 55
14 57
14 61
14 65
14 66
14 69
14 71
14 72
14 73
14 75
14 78
14 79
14 81
14 83
14 85
14 90
14 95
14 101
14 102
14 105
14 108
15 15
15 58
15 60
15 61
15 62
15 64
15 67
15 68
15 72
15 74
15 76
15 78
15 79
15 82
15 84
15 86
15 88
15 91
15 97
15 98
15 104
15 108
16 16
16 55
16 57
16 63
16 65
16 66
16 67
16 71
16 72
16 73
16 75
16 77
16 79
16 81
16 84
16 87
16 89
16 96
16 101
16 102
16 103
16 107
17 17
17 58
17 60
17 61
17 62
17 66
17 67
17 68
17 70
17 73
17 76
17 78
17 80
17 82
17 84
17 85
17 90
17 92
17 97
17 98
17 103
17 106
18 18
18 56
18 59
18 63
18 64
18 65
18 68
18 69
18 70
18 74
18 75
18 77
18 80
18 82
18 83
18 87
18 89
18 94
18 99
18 100
18 104
18 105
19 19
19 58
19 59
19 62
19 65
19 68
19 69
19 70
19 75
19 76
19 77
19 80
19 82
19 83
19 86
19 87
19 89
19 92
19 94
19 99
19 105
19 106
20 20
20 57
20 60
20 61
20 63
20 67
20 71
20 72
20 75
20 77
20 78
20 79
20 81
20 84
20 85
20 87
20 89
20 91
20 96
20 101
20 107
20 108
21 21
21 56
21 60
21 64
21 66
21 67
21 68
21 70
21 73
21 74
21 78
21 80
21 82
21 84
21 85
21 88
21 90
21 92
21 94
21 97
21 103
21 104
22 22
22 55
22 59
22 61
22 63
22 69
22 71
22 72
22 73
22 77
22 78
22 79
22 81
22 83
22 85
22 87
22 90
22 93
22 95
22 102
22 107
22 108
23 23
23 55
23 58
23 64
23 66
23 67
23 68
23 72
23 73
23 74
23 76
23 79
23 82
23 84
23 86
23 88
23 90
23 91
23 96
23 98
23 103
23 104
24 24
24 56
24 57
24 62
24 65
24 69
24 70
24 71
24 74
24 75
24 76
24 80
24 81
24 83
24 86
24 88
24 89
24 93
24 95
24 100
24 105
24 106
25 25
25 57
25 58
25 64
25 65
25 68
25 71
25 74
25 75
25 76
25 81
25 82
25 83
25 86
25 88
25 89
25 92
25 93
25 95
25 98
25 100
25 105
26 26
26 59
26 60
26 63
26 66
26 67
26 69
26 73
26 77
26 78
26 81
26 83
26 84
26 85
26 87
26 90
26 91
26 93
26 95
26 97
26 102
26 107
27 27
27 55
27 56
27 62
27 66
27 70
27 72
27 73
27 74
27 76
27 79
27 80
27 84
27 86
27 88
27 90
27 91
27 94
27 96
27 98
27 100
27 103
28 28
28 59
28 60
28 61
28 65
28 67
28 69
28 75
28 77
28 78
28 79
28 83
28 84
28 85
28 87
28 89
28 91
28 93
28 96
28 99
28 101
28 108
29 29
29 55
29 56
29 61
29 64
29 70
29 72
29 73
29 74
29 78
29 79
29 80
29 82
29 85
29 88
29 90
29 92
29 94
29 96
29 97
29 102
29 104
30 30
30 57
30 58
30 62
30 63
30 68
30 71
30 75
30 76
30 77
30 80
30 81
30 82
30 86
30 87
30 89
30 92
30 94
30 95
30 99
30 101
30 106
31 31
31 57
31 63
31 64
31 70
31 71
31 74
31 77
31 80
31 81
31 82
31 87
31 88
31 89
31 92
31 94
31 95
31 98
31 99
31 101
31 104
31 106
32 32
32 59
32 65
32 66
32 69
32 72
32 73
32 75
32 79
32 83
32 84
32 87
32 89
32 90
32 91
32 93
32 96
32 97
32 99
32 101
32 103
32 108
33 33
33 55
33 61
33 62
33 68
33 72
33 76
33 78
33 79
33 80
33 82
33 85
33 86
33 90
33 92
33 94
33 96
33 97
33 100
33 102
33 104
33 106
34 34
34 60
34 65
34 66
34 67
34 71
34 73
34 75
34 81
34 83
34 84
34 85
34 89
34 90
34 91
34 93
34 95
34 97
34 99
34 102
34 105
34 107
35 35
35 56
35 61
35 62
35 67
35 70
35 76
35 78
35 79
35 80
35 84
35 85
35 86
35 88
35 91
35 94
35 96
35 98
35 100
35 102
35 103
35 108
36 36
36 58
36 63
36 64
36 68
36 69
36 74
36 77
36 81
36 82
36 83
36 86
36 87
36 88
36 92
36 93
36 95
36 98
36 100
36 101
36 105
36 107
37 37
37 56
37 58
37 63
37 69
37 70
37 76
37 77
37 80
37 83
37 86
37 87
37 88
37 93
37 94
37 95
37 98
37 100
37 101
37 104
37 105
37 107
38 38
38 55
38 60
38 65
38 71
38 72
38 75
38 78
38 79
38 81
38 85
38 89
38 90
38 93
38 95
38 96
38 97
38 99
38 102
38 103
38 105
38 107
39 39
39 56
39 58
39 61
39 67
39 68
39 74
39 78
39 82
39 84
39 85
39 86
39 88
39 91
39 92
39 96
39 98
39 100
39 102
39 103
39 106
39 108
40 40
40 57
40 59
40 66
40 71
40 72
40 73
40 77
40 79
40 81
40 87
40 89
40 90
40 91
40 95
40 96
40 97
40 99
40 101
40 103
40 105
40 108
41 41
41 55
41 60
41 62
41 67
41 68
41 73
41 76
41 82
41 84
41 85
41 86
41 90
41 91
41 92
41 94
41 97
41 100
41 102
41 104
41 106
41 108
42 42
42 57
42 59
42 64
42 69
42 70
42 74
42 75
42 80
42 83
42 87
42 88
42 89
42 92
42 93
42 94
42 98
42 99
42 101
42 104
42 106
42 107
43 43
43 56
43 57
43 59
43 62
43 64
43 69
43 75
43 76
43 82
43 83
43 86
43 89
43 92
43 93
43 94
43 99
43 100
43 101
43 104
43 106
43 107
44 44
44 55
44 57
44 59
44 61
44 66
44 71
44 77
44 78
44 81
44 84
44 85
44 87
44 91
44 95
44 96
44 99
44 101
44 102
44 103
44 105
44 108
45 45
45 55
45 58
45 60
45 62
45 64
45 67
45 73
45 74
45 80
45 84
45 88
45 90
45 91
45 92
45 94
45 97
45 98
45 102
45 104
45 106
45 108
46 46
46 55
46 57
46 60
46 63
46 65
46 72
46 77
46 78
46 79
46 83
46 85
46 87
46 93
46 95
46 96
46 97
46 101
46 102
46 103
46 105
46 107
47 47
47 56
47 58
47 60
47 61
47 66
47 68
47 73
47 74
47 79
47 82
47 88
47 90
47 91
47 92
47 96
47 97
47 98
47 100
47 103
47 106
47 108
48 48
48 56
48 58
48 59
48 63
48 65
48 70
48 75
48 76
48 80
48 81
48 86
48 89
48 93
48 94
48 95
48 98
48 99
48 100
48 104
48 105
48 107
49 49
49 56
49 58
49 59
49 62
49 63
49 65
49 68
49 70
49 75
49 81
49 82
49 88
49 89
49 92
49 95
49 98
49 99
49 100
49 105
49 106
49 107
50 50
50 55
50 57
50 60
50 61
50 63
50 65
50 67
50 72
50 77
50 83
50 84
50 87
50 90
50 91
50 93
50 97
50 101
50 102
50 105
50 107
50 108
51 51
51 56
51 58
51 60
51 61
51 64
51 66
51 68
51 70
51 73
51 79
51 80
51 86
51 90
51 94
51 96
51 97
51 98
51 100
51 103
51 104
51 108
52 52
52 55
52 57
52 59
52 61
52 63
52 66
52 69
52 71
52 78
52 83
52 84
52 85
52 89
52 91
52 93
52 99
52 101
52 102
52 103
52 107
52 108
53 53
53 55
53 58
53 60
53 62
53 64
53 66
53 67
53 72
53 74
53 79
53 80
53 85
53 88
53 94
53 96
53 97
53 98
53 102
53 103
53 104
53 106
54 54
54 56
54 57
54 59
54 62
54 64
54 65
54 69
54 71
54 76
54 81
54 82
54 86
54 87
54 92
54 95
54 99
54 100
54 101
54 104
54 105
54 106
