%%MatrixMarket matrix coordinate pattern general
% [[90, 18, 6]] Mitten code over C3 x S3 (seed=2) (Lz)
18 90 144
1 1
1 42
1 45
1 46
1 48
1 51
1 53
1 54
2 2
2 41
2 45
2 46
2 47
2 52
2 53
2 54
3 3
3 40
3 43
3 46
3 48
3 49
3 50
3 52
4 4
4 39
4 44
4 45
4 47
4 49
4 50
4 51
5 5
5 38
5 43
5 44
5 48
5 50
5 52
5 54
6 6
6 37
6 43
6 44
6 47
6 49
6 51
6 53
7 7
7 39
7 41
7 42
7 48
7 51
7 52
7 54
8 8
8 40
8 41
8 42
8 47
8 51
8 52
8 53
9 9
9 37
9 38
9 40
9 46
9 49
9 52
9 54
10 10
10 37
10 38
10 39
10 45
10 50
10 51
10 53
11 11
11 38
11 40
11 42
11 44
11 49
11 50
11 54
12 12
12 37
12 39
12 41
12 43
12 49
12 50
12 53
13 13
13 39
13 40
13 42
13 45
13 47
13 48
13 54
14 14
14 39
14 40
14 41
14 46
14 47
14 48
14 53
15 15
15 37
15 40
15 42
15 43
15 44
15 46
15 52
16 16
16 38
16 39
16 41
16 43
16 44
16 45
16 51
17 17
17 37
17 38
17 42
17 44
17 46
17 48
17 50
18 18
18 37
18 38
18 41
18 43
18 45
18 47
18 49
