%%MatrixMarket matrix coordinate pattern general
% [[210, 42, 8]] Mitten code over C7 x S3 (seed=2) A=[[(21, 26, 31), (0, 6, 40)]], B=[[(18, 30, 32), (0, 1, 25)]] (Hx)
84 210 756
1 14
1 21
1 29
1 85
1 94
1 121
1 181
1 183
1 193
2 13
2 22
2 30
2 86
2 93
2 122
2 182
2 185
2 194
3 17
3 19
3 26
3 87
3 96
3 123
3 181
3 183
3 195
4 18
4 20
4 25
4 88
4 95
4 124
4 184
4 186
4 196
5 15
5 24
5 28
5 89
5 91
5 125
5 182
5 185
5 197
6 16
6 23
6 27
6 90
6 92
6 126
6 184
6 186
6 198
7 20
7 27
7 35
7 85
7 91
7 100
7 187
7 189
7 199
8 19
8 28
8 36
8 86
8 92
8 99
8 188
8 191
8 200
9 23
9 25
9 32
9 87
9 93
9 102
9 187
9 189
9 201
10 24
10 26
10 31
10 88
10 94
10 101
10 190
10 192
10 202
11 21
11 30
11 34
11 89
11 95
11 97
11 188
11 191
11 203
12 22
12 29
12 33
12 90
12 96
12 98
12 190
12 192
12 204
13 26
13 33
13 41
13 91
13 97
13 106
13 193
13 195
13 205
14 25
14 34
14 42
14 92
14 98
14 105
14 194
14 197
14 206
15 29
15 31
15 38
15 93
15 99
15 108
15 193
15 195
15 207
16 30
16 32
16 37
16 94
16 100
16 107
16 196
16 198
16 208
17 27
17 36
17 40
17 95
17 101
17 103
17 194
17 197
17 209
18 28
18 35
18 39
18 96
18 102
18 104
18 196
18 198
18 210
19 5
19 32
19 39
19 97
19 103
19 112
19 169
19 199
19 201
20 6
20 31
20 40
20 98
20 104
20 111
20 170
20 200
20 203
21 2
21 35
21 37
21 99
21 105
21 114
21 171
21 199
21 201
22 1
22 36
22 38
22 100
22 106
22 113
22 172
22 202
22 204
23 4
23 33
23 42
23 101
23 107
23 109
23 173
23 200
23 203
24 3
24 34
24 41
24 102
24 108
24 110
24 174
24 202
24 204
25 3
25 11
25 38
25 103
25 109
25 118
25 175
25 205
25 207
26 4
26 12
26 37
26 104
26 110
26 117
26 176
26 206
26 209
27 1
27 8
27 41
27 105
27 111
27 120
27 177
27 205
27 207
28 2
28 7
28 42
28 106
28 112
28 119
28 178
28 208
28 210
29 6
29 10
29 39
29 107
29 113
29 115
29 179
29 206
29 209
30 5
30 9
30 40
30 108
30 114
30 116
30 180
30 208
30 210
31 2
31 9
31 17
31 109
31 115
31 124
31 169
31 171
31 181
32 1
32 10
32 18
32 110
32 116
32 123
32 170
32 173
32 182
33 5
33 7
33 14
33 111
33 117
33 126
33 169
33 171
33 183
34 6
34 8
34 13
34 112
34 118
34 125
34 172
34 174
34 184
35 3
35 12
35 16
35 113
35 119
35 121
35 170
35 173
35 185
36 4
36 11
36 15
36 114
36 120
36 122
36 172
36 174
36 186
37 8
37 15
37 23
37 88
37 115
37 121
37 175
37 177
37 187
38 7
38 16
38 24
38 87
38 116
38 122
38 176
38 179
38 188
39 11
39 13
39 20
39 90
39 117
39 123
39 175
39 177
39 189
40 12
40 14
40 19
40 89
40 118
40 124
40 178
40 180
40 190
41 9
41 18
41 22
41 85
41 119
41 125
41 176
41 179
41 191
42 10
42 17
42 21
42 86
42 120
42 126
42 178
42 180
42 192
43 56
43 63
43 71
43 127
43 136
43 163
43 169
43 170
43 188
44 55
44 64
44 72
44 128
44 135
44 164
44 169
44 170
44 187
45 59
45 61
45 68
45 129
45 138
45 165
45 171
45 172
45 190
46 60
46 62
46 67
46 130
46 137
46 166
46 171
46 172
46 189
47 57
47 66
47 70
47 131
47 133
47 167
47 173
47 174
47 192
48 58
48 65
48 69
48 132
48 134
48 168
48 173
48 174
48 191
49 62
49 69
49 77
49 127
49 133
49 142
49 175
49 176
49 194
50 61
50 70
50 78
50 128
50 134
50 141
50 175
50 176
50 193
51 65
51 67
51 74
51 129
51 135
51 144
51 177
51 178
51 196
52 66
52 68
52 73
52 130
52 136
52 143
52 177
52 178
52 195
53 63
53 72
53 76
53 131
53 137
53 139
53 179
53 180
53 198
54 64
54 71
54 75
54 132
54 138
54 140
54 179
54 180
54 197
55 68
55 75
55 83
55 133
55 139
55 148
55 181
55 182
55 200
56 67
56 76
56 84
56 134
56 140
56 147
56 181
56 182
56 199
57 71
57 73
57 80
57 135
57 141
57 150
57 183
57 184
57 202
58 72
58 74
58 79
58 136
58 142
58 149
58 183
58 184
58 201
59 69
59 78
59 82
59 137
59 143
59 145
59 185
59 186
59 204
60 70
60 77
60 81
60 138
60 144
60 146
60 185
60 186
60 203
61 47
61 74
61 81
61 139
61 145
61 154
61 187
61 188
61 206
62 48
62 73
62 82
62 140
62 146
62 153
62 187
62 188
62 205
63 44
63 77
63 79
63 141
63 147
63 156
63 189
63 190
63 208
64 43
64 78
64 80
64 142
64 148
64 155
64 189
64 190
64 207
65 46
65 75
65 84
65 143
65 149
65 151
65 191
65 192
65 210
66 45
66 76
66 83
66 144
66 150
66 152
66 191
66 192
66 209
67 45
67 53
67 80
67 145
67 151
67 160
67 170
67 193
67 194
68 46
68 54
68 79
68 146
68 152
68 159
68 169
68 193
68 194
69 43
69 50
69 83
69 147
69 153
69 162
69 172
69 195
69 196
70 44
70 49
70 84
70 148
70 154
70 161
70 171
70 195
70 196
71 48
71 52
71 81
71 149
71 155
71 157
71 174
71 197
71 198
72 47
72 51
72 82
72 150
72 156
72 158
72 173
72 197
72 198
73 44
73 51
73 59
73 151
73 157
73 166
73 176
73 199
73 200
74 43
74 52
74 60
74 152
74 158
74 165
74 175
74 199
74 200
75 47
75 49
75 56
75 153
75 159
75 168
75 178
75 201
75 202
76 48
76 50
76 55
76 154
76 160
76 167
76 177
76 201
76 202
77 45
77 54
77 58
77 155
77 161
77 163
77 180
77 203
77 204
78 46
78 53
78 57
78 156
78 162
78 164
78 179
78 203
78 204
79 50
79 57
79 65
79 130
79 157
79 163
79 182
79 205
79 206
80 49
80 58
80 66
80 129
80 158
80 164
80 181
80 205
80 206
81 53
81 55
81 62
81 132
81 159
81 165
81 184
81 207
81 208
82 54
82 56
82 61
82 131
82 160
82 166
82 183
82 207
82 208
83 51
83 60
83 64
83 127
83 161
83 167
83 186
83 209
83 210
84 52
84 59
84 63
84 128
84 162
84 168
84 185
84 209
84 210
