%%MatrixMarket matrix coordinate pattern general
% [[150, 30, 8]] Mitten code over C5 x S3 (seed=2, flagship demo) (Lx)
30 150 240
1 1
1 33
1 44
1 45
1 47
1 51
1 56
1 58
2 2
2 35
2 43
2 45
2 47
2 53
2 55
2 60
3 3
3 31
3 43
3 46
3 48
3 49
3 56
3 58
4 4
4 36
4 43
4 45
4 48
4 54
4 57
4 59
5 5
5 32
5 44
5 46
5 48
5 50
5 55
5 60
6 6
6 34
6 44
6 46
6 47
6 52
6 57
6 59
7 7
7 32
7 34
7 39
7 50
7 51
7 53
7 57
8 8
8 31
8 36
8 41
8 49
8 51
8 53
8 59
9 9
9 32
9 34
9 37
9 49
9 52
9 54
9 55
10 10
10 33
10 35
10 42
10 49
10 51
10 54
10 60
11 11
11 31
11 36
11 38
11 50
11 52
11 54
11 56
12 12
12 33
12 35
12 40
12 50
12 52
12 53
12 58
13 13
13 33
13 38
13 40
13 45
13 56
13 57
13 59
14 14
14 35
14 37
14 42
14 47
14 55
14 57
14 59
15 15
15 31
15 38
15 40
15 43
15 55
15 58
15 60
16 16
16 36
16 39
16 41
16 48
16 55
16 57
16 60
17 17
17 32
17 37
17 42
17 44
17 56
17 58
17 60
18 18
18 34
18 39
18 41
18 46
18 56
18 58
18 59
19 19
19 32
19 33
19 35
19 39
19 44
19 46
19 51
20 20
20 31
20 33
20 35
20 41
20 43
20 48
20 53
21 21
21 31
21 34
21 36
21 37
21 44
21 46
21 49
22 22
22 31
22 33
22 36
22 42
22 45
22 47
22 54
23 23
23 32
23 34
23 36
23 38
23 43
23 48
23 50
24 24
24 32
24 34
24 35
24 40
24 45
24 47
24 52
25 25
25 38
25 39
25 41
25 45
25 50
25 52
25 57
26 26
26 37
26 39
26 41
26 47
26 49
26 54
26 59
27 27
27 37
27 40
27 42
27 43
27 50
27 52
27 55
28 28
28 37
28 39
28 42
28 48
28 51
28 53
28 60
29 29
29 38
29 40
29 42
29 44
29 49
29 54
29 56
30 30
30 38
30 40
30 41
30 46
30 51
30 53
30 58
