%%MatrixMarket matrix coordinate pattern general
% [[90, 18, 6]] Mitten code over C3 x S3 (seed=2) A=[[(4, 9, 17), (0, 1, 13)]], B=[[(9, 11, 17), (0, 5, 6)]] (Hx)
36 90 324
1 4
1 12
1 17
1 37
1 38
1 44
1 84
1 89
1 90
2 3
2 11
2 18
2 37
2 38
2 43
2 82
2 87
2 88
3 6
3 10
3 14
3 39
3 41
3 47
3 83
3 89
3 90
4 5
4 9
4 13
4 40
4 42
4 48
4 80
4 85
4 86
5 1
5 8
5 16
5 39
5 41
5 45
5 81
5 87
5 88
6 2
6 7
6 15
6 40
6 42
6 46
6 79
6 85
6 86
7 5
7 10
7 18
7 43
7 44
7 50
7 77
7 78
7 90
8 6
8 9
8 17
8 43
8 44
8 49
8 75
8 76
8 88
9 2
9 12
9 16
9 45
9 47
9 53
9 77
9 78
9 89
10 1
10 11
10 15
10 46
10 48
10 54
10 73
10 74
10 86
11 4
11 7
11 14
11 45
11 47
11 51
11 75
11 76
11 87
12 3
12 8
12 13
12 46
12 48
12 52
12 73
12 74
12 85
13 6
13 11
13 16
13 38
13 49
13 50
13 78
13 83
13 84
14 5
14 12
14 15
14 37
14 49
14 50
14 76
14 81
14 82
15 4
15 8
15 18
15 41
15 51
15 53
15 77
15 83
15 84
16 3
16 7
16 17
16 42
16 52
16 54
16 74
16 79
16 80
17 2
17 10
17 13
17 39
17 51
17 53
17 75
17 81
17 82
18 1
18 9
18 14
18 40
18 52
18 54
18 73
18 79
18 80
19 22
19 30
19 35
19 55
19 56
19 62
19 73
19 78
19 85
20 21
20 29
20 36
20 55
20 56
20 61
20 74
20 76
20 86
21 24
21 28
21 32
21 57
21 59
21 65
21 75
21 77
21 87
22 23
22 27
22 31
22 58
22 60
22 66
22 74
22 76
22 88
23 19
23 26
23 34
23 57
23 59
23 63
23 75
23 77
23 89
24 20
24 25
24 33
24 58
24 60
24 64
24 73
24 78
24 90
25 23
25 28
25 36
25 61
25 62
25 68
25 73
25 79
25 84
26 24
26 27
26 35
26 61
26 62
26 67
26 74
26 80
26 82
27 20
27 30
27 34
27 63
27 65
27 71
27 75
27 81
27 83
28 19
28 29
28 33
28 64
28 66
28 72
28 76
28 80
28 82
29 22
29 25
29 32
29 63
29 65
29 69
29 77
29 81
29 83
30 21
30 26
30 31
30 64
30 66
30 70
30 78
30 79
30 84
31 24
31 29
31 34
31 56
31 67
31 68
31 79
31 85
31 90
32 23
32 30
32 33
32 55
32 67
32 68
32 80
32 86
32 88
33 22
33 26
33 36
33 59
33 69
33 71
33 81
33 87
33 89
34 21
34 25
34 35
34 60
34 70
34 72
34 82
34 86
34 88
35 20
35 28
35 31
35 57
35 69
35 71
35 83
35 87
35 89
36 19
36 27
36 32
36 58
36 70
36 72
36 84
36 85
36 90
