%%MatrixMarket matrix coordinate pattern general
% [[90, 18, 6]] Mitten code over C3 x S3 (seed=2) A=[[(4, 9, 17), (0, 1, 13)]], B=[[(9, 11, 17), (0, 5, 6)]] (Hz)
36 90 324
1 10
1 12
1 18
1 19
1 24
1 25
1 77
1 82
1 90
2 10
2 12
2 16
2 20
2 22
2 26
2 78
2 81
2 89
3 8
3 11
3 17
3 21
3 23
3 27
3 74
3 84
3 88
4 8
4 11
4 14
4 20
4 22
4 28
4 73
4 83
4 87
5 7
5 9
5 15
5 21
5 23
5 29
5 76
5 79
5 86
6 7
6 9
6 13
6 19
6 24
6 30
6 75
6 80
6 85
7 6
7 16
7 18
7 25
7 30
7 31
7 78
7 83
7 88
8 4
8 16
8 18
8 26
8 28
8 32
8 77
8 84
8 87
9 5
9 14
9 17
9 27
9 29
9 33
9 76
9 80
9 90
10 2
10 14
10 17
10 26
10 28
10 34
10 75
10 79
10 89
11 3
11 13
11 15
11 27
11 29
11 35
11 74
11 82
11 85
12 1
12 13
12 15
12 25
12 30
12 36
12 73
12 81
12 86
13 4
13 6
13 12
13 19
13 31
13 36
13 76
13 84
13 89
14 4
14 6
14 10
14 20
14 32
14 34
14 75
14 83
14 90
15 2
15 5
15 11
15 21
15 33
15 35
15 78
15 82
15 86
16 2
16 5
16 8
16 22
16 32
16 34
16 77
16 81
16 85
17 1
17 3
17 9
17 23
17 33
17 35
17 73
17 80
17 88
18 1
18 3
18 7
18 24
18 31
18 36
18 74
18 79
18 87
19 46
19 48
19 54
19 55
19 60
19 61
19 73
19 74
19 86
20 46
20 48
20 52
20 56
20 58
20 62
20 73
20 74
20 85
21 44
21 47
21 53
21 57
21 59
21 63
21 75
21 77
21 89
22 44
22 47
22 50
22 56
22 58
22 64
22 76
22 78
22 90
23 43
23 45
23 51
23 57
23 59
23 65
23 75
23 77
23 87
24 43
24 45
24 49
24 55
24 60
24 66
24 76
24 78
24 88
25 42
25 52
25 54
25 61
25 66
25 67
25 74
25 79
25 80
26 40
26 52
26 54
26 62
26 64
26 68
26 73
26 79
26 80
27 41
27 50
27 53
27 63
27 65
27 69
27 77
27 81
27 83
28 38
28 50
28 53
28 62
28 64
28 70
28 78
28 82
28 84
29 39
29 49
29 51
29 63
29 65
29 71
29 75
29 81
29 83
30 37
30 49
30 51
30 61
30 66
30 72
30 76
30 82
30 84
31 40
31 42
31 48
31 55
31 67
31 72
31 80
31 85
31 86
32 40
32 42
32 46
32 56
32 68
32 70
32 79
32 85
32 86
33 38
33 41
33 47
33 57
33 69
33 71
33 83
33 87
33 89
34 38
34 41
34 44
34 58
34 68
34 70
34 84
34 88
34 90
35 37
35 39
35 45
35 59
35 69
35 71
35 81
35 87
35 89
36 37
36 39
36 43
36 60
36 67
36 72
36 82
36 88
36 90
