%%MatrixMarket matrix coordinate pattern general
% [[210, 42, 8]] Mitten code over C7 x S3 (seed=2) (Lx)
42 210 420
1 1
1 50
1 61
1 62
1 63
1 64
1 73
1 74
1 80
1 82
2 2
2 49
2 61
2 62
2 65
2 66
2 73
2 74
2 79
2 84
3 3
3 52
3 61
3 62
3 63
3 64
3 75
3 76
3 80
3 82
4 4
4 51
4 63
4 64
4 65
4 66
4 75
4 76
4 81
4 83
5 5
5 54
5 61
5 62
5 65
5 66
5 77
5 78
5 79
5 84
6 6
6 53
6 63
6 64
6 65
6 66
6 77
6 78
6 81
6 83
7 7
7 44
7 46
7 56
7 67
7 68
7 69
7 70
7 79
7 80
8 8
8 43
8 48
8 55
8 67
8 68
8 71
8 72
8 79
8 80
9 9
9 44
9 46
9 58
9 67
9 68
9 69
9 70
9 81
9 82
10 10
10 45
10 47
10 57
10 69
10 70
10 71
10 72
10 81
10 82
11 11
11 43
11 48
11 60
11 67
11 68
11 71
11 72
11 83
11 84
12 12
12 45
12 47
12 59
12 69
12 70
12 71
12 72
12 83
12 84
13 13
13 43
13 44
13 50
13 52
13 62
13 73
13 74
13 75
13 76
14 14
14 43
14 44
14 49
14 54
14 61
14 73
14 74
14 77
14 78
15 15
15 45
15 46
15 50
15 52
15 64
15 73
15 74
15 75
15 76
16 16
16 45
16 46
16 51
16 53
16 63
16 75
16 76
16 77
16 78
17 17
17 47
17 48
17 49
17 54
17 66
17 73
17 74
17 77
17 78
18 18
18 47
18 48
18 51
18 53
18 65
18 75
18 76
18 77
18 78
19 19
19 49
19 50
19 56
19 58
19 68
19 79
19 80
19 81
19 82
20 20
20 49
20 50
20 55
20 60
20 67
20 79
20 80
20 83
20 84
21 21
21 51
21 52
21 56
21 58
21 70
21 79
21 80
21 81
21 82
22 22
22 51
22 52
22 57
22 59
22 69
22 81
22 82
22 83
22 84
23 23
23 53
23 54
23 55
23 60
23 72
23 79
23 80
23 83
23 84
24 24
24 53
24 54
24 57
24 59
24 71
24 81
24 82
24 83
24 84
25 25
25 43
25 44
25 45
25 46
25 55
25 56
25 62
25 64
25 74
26 26
26 43
26 44
26 47
26 48
26 55
26 56
26 61
26 66
26 73
27 27
27 43
27 44
27 45
27 46
27 57
27 58
27 62
27 64
27 76
28 28
28 45
28 46
28 47
28 48
28 57
28 58
28 63
28 65
28 75
29 29
29 43
29 44
29 47
29 48
29 59
29 60
29 61
29 66
29 78
30 30
30 45
30 46
30 47
30 48
30 59
30 60
30 63
30 65
30 77
31 31
31 49
31 50
31 51
31 52
31 61
31 62
31 68
31 70
31 80
32 32
32 49
32 50
32 53
32 54
32 61
32 62
32 67
32 72
32 79
33 33
33 49
33 50
33 51
33 52
33 63
33 64
33 68
33 70
33 82
34 34
34 51
34 52
34 53
34 54
34 63
34 64
34 69
34 71
34 81
35 35
35 49
35 50
35 53
35 54
35 65
35 66
35 67
35 72
35 84
36 36
36 51
36 52
36 53
36 54
36 65
36 66
36 69
36 71
36 83
37 37
37 44
37 55
37 56
37 57
37 58
37 67
37 68
37 74
37 76
38 38
38 43
38 55
38 56
38 59
38 60
38 67
38 68
38 73
38 78
39 39
39 46
39 55
39 56
39 57
39 58
39 69
39 70
39 74
39 76
40 40
40 45
40 57
40 58
40 59
40 60
40 69
40 70
40 75
40 77
41 41
41 48
41 55
41 56
41 59
41 60
41 71
41 72
41 73
41 78
42 42
42 47
42 57
42 58
42 59
42 60
42 71
42 72
42 75
42 77
