%%MatrixMarket matrix coordinate pattern general
% [[330, 66, 6]] Mitten code over C11 x S3 (seed=2) A=[[(32, 33, 44), (0, 30, 42)]], B=[[(33, 37, 51), (0, 14, 56)]] (Hx)
132 330 1188
1 27
1 39
1 41
1 133
1 157
1 169
1 287
1 296
1 305
2 28
2 40
2 42
2 134
2 158
2 170
2 285
2 295
2 303
3 25
3 37
3 38
3 135
3 159
3 171
3 288
3 298
3 306
4 26
4 37
4 38
4 136
4 160
4 172
4 283
4 297
4 301
5 30
5 40
5 42
5 137
5 161
5 173
5 286
5 300
5 304
6 29
6 39
6 41
6 138
6 162
6 174
6 284
6 299
6 302
7 33
7 45
7 47
7 139
7 163
7 175
7 293
7 302
7 311
8 34
8 46
8 48
8 140
8 164
8 176
8 291
8 301
8 309
9 31
9 43
9 44
9 141
9 165
9 177
9 294
9 304
9 312
10 32
10 43
10 44
10 142
10 166
10 178
10 289
10 303
10 307
11 36
11 46
11 48
11 143
11 167
11 179
11 292
11 306
11 310
12 35
12 45
12 47
12 144
12 168
12 180
12 290
12 305
12 308
13 39
13 51
13 53
13 145
13 169
13 181
13 299
13 308
13 317
14 40
14 52
14 54
14 146
14 170
14 182
14 297
14 307
14 315
15 37
15 49
15 50
15 147
15 171
15 183
15 300
15 310
15 318
16 38
16 49
16 50
16 148
16 172
16 184
16 295
16 309
16 313
17 42
17 52
17 54
17 149
17 173
17 185
17 298
17 312
17 316
18 41
18 51
18 53
18 150
18 174
18 186
18 296
18 311
18 314
19 45
19 57
19 59
19 151
19 175
19 187
19 305
19 314
19 323
20 46
20 58
20 60
20 152
20 176
20 188
20 303
20 313
20 321
21 43
21 55
21 56
21 153
21 177
21 189
21 306
21 316
21 324
22 44
22 55
22 56
22 154
22 178
22 190
22 301
22 315
22 319
23 48
23 58
23 60
23 155
23 179
23 191
23 304
23 318
23 322
24 47
24 57
24 59
24 156
24 180
24 192
24 302
24 317
24 320
25 51
25 63
25 65
25 157
25 181
25 193
25 311
25 320
25 329
26 52
26 64
26 66
26 158
26 182
26 194
26 309
26 319
26 327
27 49
27 61
27 62
27 159
27 183
27 195
27 312
27 322
27 330
28 50
28 61
28 62
28 160
28 184
28 196
28 307
28 321
28 325
29 54
29 64
29 66
29 161
29 185
29 197
29 310
29 324
29 328
30 53
30 63
30 65
30 162
30 186
30 198
30 308
30 323
30 326
31 3
31 5
31 57
31 133
31 163
31 187
31 269
31 317
31 326
32 4
32 6
32 58
32 134
32 164
32 188
32 267
32 315
32 325
33 1
33 2
33 55
33 135
33 165
33 189
33 270
33 318
33 328
34 1
34 2
34 56
34 136
34 166
34 190
34 265
34 313
34 327
35 4
35 6
35 60
35 137
35 167
35 191
35 268
35 316
35 330
36 3
36 5
36 59
36 138
36 168
36 192
36 266
36 314
36 329
37 9
37 11
37 63
37 139
37 169
37 193
37 266
37 275
37 323
38 10
38 12
38 64
38 140
38 170
38 194
38 265
38 273
38 321
39 7
39 8
39 61
39 141
39 171
39 195
39 268
39 276
39 324
40 7
40 8
40 62
40 142
40 172
40 196
40 267
40 271
40 319
41 10
41 12
41 66
41 143
41 173
41 197
41 270
41 274
41 322
42 9
42 11
42 65
42 144
42 174
42 198
42 269
42 272
42 320
43 3
43 15
43 17
43 133
43 145
43 175
43 272
43 281
43 329
44 4
44 16
44 18
44 134
44 146
44 176
44 271
44 279
44 327
45 1
45 13
45 14
45 135
45 147
45 177
45 274
45 282
45 330
46 2
46 13
46 14
46 136
46 148
46 178
46 273
46 277
46 325
47 6
47 16
47 18
47 137
47 149
47 179
47 276
47 280
47 328
48 5
48 15
48 17
48 138
48 150
48 180
48 275
48 278
48 326
49 9
49 21
49 23
49 139
49 151
49 181
49 269
49 278
49 287
50 10
50 22
50 24
50 140
50 152
50 182
50 267
50 277
50 285
51 7
51 19
51 20
51 141
51 153
51 183
51 270
51 280
51 288
52 8
52 19
52 20
52 142
52 154
52 184
52 265
52 279
52 283
53 12
53 22
53 24
53 143
53 155
53 185
53 268
53 282
53 286
54 11
54 21
54 23
54 144
54 156
54 186
54 266
54 281
54 284
55 15
55 27
55 29
55 145
55 157
55 187
55 275
55 284
55 293
56 16
56 28
56 30
56 146
56 158
56 188
56 273
56 283
56 291
57 13
57 25
57 26
57 147
57 159
57 189
57 276
57 286
57 294
58 14
58 25
58 26
58 148
58 160
58 190
58 271
58 285
58 289
59 18
59 28
59 30
59 149
59 161
59 191
59 274
59 288
59 292
60 17
60 27
60 29
60 150
60 162
60 192
60 272
60 287
60 290
61 21
61 33
61 35
61 151
61 163
61 193
61 281
61 290
61 299
62 22
62 34
62 36
62 152
62 164
62 194
62 279
62 289
62 297
63 19
63 31
63 32
63 153
63 165
63 195
63 282
63 292
63 300
64 20
64 31
64 32
64 154
64 166
64 196
64 277
64 291
64 295
65 24
65 34
65 36
65 155
65 167
65 197
65 280
65 294
65 298
66 23
66 33
66 35
66 156
66 168
66 198
66 278
66 293
66 296
67 93
67 105
67 107
67 199
67 223
67 235
67 265
67 279
67 321
68 94
68 106
68 108
68 200
68 224
68 236
68 266
68 281
68 323
69 91
69 103
69 104
69 201
69 225
69 237
69 267
69 277
69 319
70 92
70 103
70 104
70 202
70 226
70 238
70 268
70 282
70 324
71 96
71 106
71 108
71 203
71 227
71 239
71 269
71 278
71 320
72 95
72 105
72 107
72 204
72 228
72 240
72 270
72 280
72 322
73 99
73 111
73 113
73 205
73 229
73 241
73 271
73 285
73 327
74 100
74 112
74 114
74 206
74 230
74 242
74 272
74 287
74 329
75 97
75 109
75 110
75 207
75 231
75 243
75 273
75 283
75 325
76 98
76 109
76 110
76 208
76 232
76 244
76 274
76 288
76 330
77 102
77 112
77 114
77 209
77 233
77 245
77 275
77 284
77 326
78 101
78 111
78 113
78 210
78 234
78 246
78 276
78 286
78 328
79 105
79 117
79 119
79 211
79 235
79 247
79 267
79 277
79 291
80 106
80 118
80 120
80 212
80 236
80 248
80 269
80 278
80 293
81 103
81 115
81 116
81 213
81 237
81 249
81 265
81 279
81 289
82 104
82 115
82 116
82 214
82 238
82 250
82 270
82 280
82 294
83 108
83 118
83 120
83 215
83 239
83 251
83 266
83 281
83 290
84 107
84 117
84 119
84 216
84 240
84 252
84 268
84 282
84 292
85 111
85 123
85 125
85 217
85 241
85 253
85 273
85 283
85 297
86 112
86 124
86 126
86 218
86 242
86 254
86 275
86 284
86 299
87 109
87 121
87 122
87 219
87 243
87 255
87 271
87 285
87 295
88 110
88 121
88 122
88 220
88 244
88 256
88 276
88 286
88 300
89 114
89 124
89 126
89 221
89 245
89 257
89 272
89 287
89 296
90 113
90 123
90 125
90 222
90 246
90 258
90 274
90 288
90 298
91 117
91 129
91 131
91 223
91 247
91 259
91 279
91 289
91 303
92 118
92 130
92 132
92 224
92 248
92 260
92 281
92 290
92 305
93 115
93 127
93 128
93 225
93 249
93 261
93 277
93 291
93 301
94 116
94 127
94 128
94 226
94 250
94 262
94 282
94 292
94 306
95 120
95 130
95 132
95 227
95 251
95 263
95 278
95 293
95 302
96 119
96 129
96 131
96 228
96 252
96 264
96 280
96 294
96 304
97 69
97 71
97 123
97 199
97 229
97 253
97 285
97 295
97 309
98 70
98 72
98 124
98 200
98 230
98 254
98 287
98 296
98 311
99 67
99 68
99 121
99 201
99 231
99 255
99 283
99 297
99 307
100 67
100 68
100 122
100 202
100 232
100 256
100 288
100 298
100 312
101 70
101 72
101 126
101 203
101 233
101 257
101 284
101 299
101 308
102 69
102 71
102 125
102 204
102 234
102 258
102 286
102 300
102 310
103 75
103 77
103 129
103 205
103 235
103 259
103 291
103 301
103 315
104 76
104 78
104 130
104 206
104 236
104 260
104 293
104 302
104 317
105 73
105 74
105 127
105 207
105 237
105 261
105 289
105 303
105 313
106 73
106 74
106 128
106 208
106 238
106 262
106 294
106 304
106 318
107 76
107 78
107 132
107 209
107 239
107 263
107 290
107 305
107 314
108 75
108 77
108 131
108 210
108 240
108 264
108 292
108 306
108 316
109 69
109 81
109 83
109 199
109 211
109 241
109 297
109 307
109 321
110 70
110 82
110 84
110 200
110 212
110 242
110 299
110 308
110 323
111 67
111 79
111 80
111 201
111 213
111 243
111 295
111 309
111 319
112 68
112 79
112 80
112 202
112 214
112 244
112 300
112 310
112 324
113 72
113 82
113 84
113 203
113 215
113 245
113 296
113 311
113 320
114 71
114 81
114 83
114 204
114 216
114 246
114 298
114 312
114 322
115 75
115 87
115 89
115 205
115 217
115 247
115 303
115 313
115 327
116 76
116 88
116 90
116 206
116 218
116 248
116 305
116 314
116 329
117 73
117 85
117 86
117 207
117 219
117 249
117 301
117 315
117 325
118 74
118 85
118 86
118 208
118 220
118 250
118 306
118 316
118 330
119 78
119 88
119 90
119 209
119 221
119 251
119 302
119 317
119 326
120 77
120 87
120 89
120 210
120 222
120 252
120 304
120 318
120 328
121 81
121 93
121 95
121 211
121 223
121 253
121 267
121 309
121 319
122 82
122 94
122 96
122 212
122 224
122 254
122 269
122 311
122 320
123 79
123 91
123 92
123 213
123 225
123 255
123 265
123 307
123 321
124 80
124 91
124 92
124 214
124 226
124 256
124 270
124 312
124 322
125 84
125 94
125 96
125 215
125 227
125 257
125 266
125 308
125 323
126 83
126 93
126 95
126 216
126 228
126 258
126 268
126 310
126 324
127 87
127 99
127 101
127 217
127 229
127 259
127 273
127 315
127 325
128 88
128 100
128 102
128 218
128 230
128 260
128 275
128 317
128 326
129 85
129 97
129 98
129 219
129 231
129 261
129 271
129 313
129 327
130 86
130 97
130 98
130 220
130 232
130 262
130 276
130 318
130 328
131 90
131 100
131 102
131 221
131 233
131 263
131 272
131 314
131 329
132 89
132 99
132 101
132 222
132 234
132 264
132 274
132 316
132 330
