%%MatrixMarket matrix coordinate pattern general
% [[150, 30, 8]] Mitten code over C5 x S3 (seed=2, flagship demo) (Lz)
30 150 420
1 1
1 61
1 63
1 66
1 67
1 69
1 73
1 75
1 76
1 78
1 84
1 87
1 88
1 90
2 2
2 62
2 64
2 65
2 68
2 70
2 74
2 75
2 76
2 77
2 83
2 87
2 88
2 89
3 3
3 61
3 63
3 64
3 67
3 69
3 73
3 75
3 76
3 78
3 82
3 85
3 88
3 90
4 4
4 62
4 63
4 64
4 68
4 70
4 74
4 75
4 76
4 77
4 81
4 86
4 87
4 89
5 5
5 62
5 65
5 66
5 71
5 72
5 73
5 74
5 77
5 78
5 80
5 85
5 86
5 90
6 6
6 61
6 65
6 66
6 71
6 72
6 73
6 74
6 77
6 78
6 79
6 85
6 86
6 89
7 7
7 63
7 64
7 66
7 67
7 69
7 72
7 73
7 75
7 79
7 81
7 82
7 84
7 90
8 8
8 63
8 64
8 65
8 68
8 70
8 71
8 74
8 76
8 80
8 81
8 82
8 83
8 89
9 9
9 61
9 64
9 66
9 67
9 69
9 70
9 73
9 75
9 79
9 81
9 82
9 84
9 88
10 10
10 62
10 63
10 65
10 68
10 69
10 70
10 74
10 76
10 80
10 81
10 82
10 83
10 87
11 11
11 61
11 62
11 66
11 68
11 71
11 72
11 77
11 78
11 79
11 80
11 83
11 84
11 86
12 12
12 61
12 62
12 65
12 67
12 71
12 72
12 77
12 78
12 79
12 80
12 83
12 84
12 85
13 13
13 66
13 69
13 70
13 72
13 73
13 75
13 78
13 79
13 81
13 85
13 87
13 88
13 90
14 14
14 65
14 69
14 70
14 71
14 74
14 76
14 77
14 80
14 82
14 86
14 87
14 88
14 89
15 15
15 64
15 67
15 70
15 72
15 73
15 75
15 76
15 79
15 81
15 85
15 87
15 88
15 90
16 16
16 63
16 68
16 69
16 71
16 74
16 75
16 76
16 80
16 82
16 86
16 87
16 88
16 89
17 17
17 62
17 67
17 68
17 72
17 74
17 77
17 78
17 83
17 84
17 85
17 86
17 89
17 90
18 18
18 61
18 67
18 68
18 71
18 73
18 77
18 78
18 83
18 84
18 85
18 86
18 89
18 90
19 19
19 61
19 63
19 64
19 66
19 72
19 75
19 76
19 78
19 79
19 81
19 84
19 85
19 87
20 20
20 62
20 63
20 64
20 65
20 71
20 75
20 76
20 77
20 80
20 82
20 83
20 86
20 88
21 21
21 61
21 63
21 64
21 66
21 70
21 73
21 76
21 78
21 79
21 81
21 82
21 85
21 87
22 22
22 62
22 63
22 64
22 65
22 69
22 74
22 75
22 77
22 80
22 81
22 82
22 86
22 88
23 23
23 61
23 62
23 65
23 66
23 68
23 73
23 74
23 78
23 80
23 83
23 84
23 89
23 90
24 24
24 61
24 62
24 65
24 66
24 67
24 73
24 74
24 77
24 79
24 83
24 84
24 89
24 90
25 25
25 61
25 63
25 67
25 69
25 70
25 72
25 78
25 81
25 82
25 84
25 85
25 87
25 90
26 26
26 62
26 64
26 68
26 69
26 70
26 71
26 77
26 81
26 82
26 83
26 86
26 88
26 89
27 27
27 61
27 63
27 67
27 69
27 70
27 72
27 76
27 79
27 82
27 84
27 85
27 87
27 88
28 28
28 62
28 64
28 68
28 69
28 70
28 71
28 75
28 80
28 81
28 83
28 86
28 87
28 88
29 29
29 65
29 66
29 67
29 68
29 71
29 72
29 74
29 79
29 80
29 84
29 86
29 89
29 90
30 30
30 65
30 66
30 67
30 68
30 71
30 72
30 73
30 79
30 80
30 83
30 85
30 89
30 90
