%%MatrixMarket matrix coordinate pattern general
% [[330, 66, 6]] Mitten code over C11 x S3 (seed=2) A=[[(32, 33, 44), (0, 30, 42)]], B=[[(33, 37, 51), (0, 14, 56)]] (Hz)
132 330 1188
1 34
1 38
1 52
1 67
1 81
1 123
1 297
1 298
1 309
2 36
2 37
2 54
2 68
2 83
2 125
2 297
2 298
2 310
3 32
3 40
3 50
3 69
3 79
3 121
3 295
3 300
3 307
4 35
4 39
4 53
4 70
4 84
4 126
4 296
4 299
4 308
5 31
5 42
5 49
5 71
5 80
5 122
5 295
5 300
5 312
6 33
6 41
6 51
6 72
6 82
6 124
6 296
6 299
6 311
7 40
7 44
7 58
7 73
7 87
7 129
7 303
7 304
7 315
8 42
8 43
8 60
8 74
8 89
8 131
8 303
8 304
8 316
9 38
9 46
9 56
9 75
9 85
9 127
9 301
9 306
9 313
10 41
10 45
10 59
10 76
10 90
10 132
10 302
10 305
10 314
11 37
11 48
11 55
11 77
11 86
11 128
11 301
11 306
11 318
12 39
12 47
12 57
12 78
12 88
12 130
12 302
12 305
12 317
13 46
13 50
13 64
13 69
13 79
13 93
13 309
13 310
13 321
14 48
14 49
14 66
14 71
14 80
14 95
14 309
14 310
14 322
15 44
15 52
15 62
15 67
15 81
15 91
15 307
15 312
15 319
16 47
16 51
16 65
16 72
16 82
16 96
16 308
16 311
16 320
17 43
17 54
17 61
17 68
17 83
17 92
17 307
17 312
17 324
18 45
18 53
18 63
18 70
18 84
18 94
18 308
18 311
18 323
19 4
19 52
19 56
19 75
19 85
19 99
19 315
19 316
19 327
20 6
20 54
20 55
20 77
20 86
20 101
20 315
20 316
20 328
21 2
21 50
21 58
21 73
21 87
21 97
21 313
21 318
21 325
22 5
22 53
22 57
22 78
22 88
22 102
22 314
22 317
22 326
23 1
23 49
23 60
23 74
23 89
23 98
23 313
23 318
23 330
24 3
24 51
24 59
24 76
24 90
24 100
24 314
24 317
24 329
25 10
25 58
25 62
25 81
25 91
25 105
25 267
25 321
25 322
26 12
26 60
26 61
26 83
26 92
26 107
26 268
26 321
26 322
27 8
27 56
27 64
27 79
27 93
27 103
27 265
27 319
27 324
28 11
28 59
28 63
28 84
28 94
28 108
28 266
28 320
28 323
29 7
29 55
29 66
29 80
29 95
29 104
29 270
29 319
29 324
30 9
30 57
30 65
30 82
30 96
30 106
30 269
30 320
30 323
31 2
31 16
31 64
31 87
31 97
31 111
31 273
31 327
31 328
32 1
32 18
32 66
32 89
32 98
32 113
32 274
32 327
32 328
33 4
33 14
33 62
33 85
33 99
33 109
33 271
33 325
33 330
34 3
34 17
34 65
34 90
34 100
34 114
34 272
34 326
34 329
35 6
35 13
35 61
35 86
35 101
35 110
35 276
35 325
35 330
36 5
36 15
36 63
36 88
36 102
36 112
36 275
36 326
36 329
37 4
37 8
37 22
37 93
37 103
37 117
37 267
37 268
37 279
38 6
38 7
38 24
38 95
38 104
38 119
38 267
38 268
38 280
39 2
39 10
39 20
39 91
39 105
39 115
39 265
39 270
39 277
40 5
40 9
40 23
40 96
40 106
40 120
40 266
40 269
40 278
41 1
41 12
41 19
41 92
41 107
41 116
41 265
41 270
41 282
42 3
42 11
42 21
42 94
42 108
42 118
42 266
42 269
42 281
43 10
43 14
43 28
43 99
43 109
43 123
43 273
43 274
43 285
44 12
44 13
44 30
44 101
44 110
44 125
44 273
44 274
44 286
45 8
45 16
45 26
45 97
45 111
45 121
45 271
45 276
45 283
46 11
46 15
46 29
46 102
46 112
46 126
46 272
46 275
46 284
47 7
47 18
47 25
47 98
47 113
47 122
47 271
47 276
47 288
48 9
48 17
48 27
48 100
48 114
48 124
48 272
48 275
48 287
49 16
49 20
49 34
49 105
49 115
49 129
49 279
49 280
49 291
50 18
50 19
50 36
50 107
50 116
50 131
50 279
50 280
50 292
51 14
51 22
51 32
51 103
51 117
51 127
51 277
51 282
51 289
52 17
52 21
52 35
52 108
52 118
52 132
52 278
52 281
52 290
53 13
53 24
53 31
53 104
53 119
53 128
53 277
53 282
53 294
54 15
54 23
54 33
54 106
54 120
54 130
54 278
54 281
54 293
55 22
55 26
55 40
55 69
55 111
55 121
55 285
55 286
55 297
56 24
56 25
56 42
56 71
56 113
56 122
56 285
56 286
56 298
57 20
57 28
57 38
57 67
57 109
57 123
57 283
57 288
57 295
58 23
58 27
58 41
58 72
58 114
58 124
58 284
58 287
58 296
59 19
59 30
59 37
59 68
59 110
59 125
59 283
59 288
59 300
60 21
60 29
60 39
60 70
60 112
60 126
60 284
60 287
60 299
61 28
61 32
61 46
61 75
61 117
61 127
61 291
61 292
61 303
62 30
62 31
62 48
62 77
62 119
62 128
62 291
62 292
62 304
63 26
63 34
63 44
63 73
63 115
63 129
63 289
63 294
63 301
64 29
64 33
64 47
64 78
64 120
64 130
64 290
64 293
64 302
65 25
65 36
65 43
65 74
65 116
65 131
65 289
65 294
65 306
66 27
66 35
66 45
66 76
66 118
66 132
66 290
66 293
66 305
67 166
67 170
67 184
67 199
67 213
67 255
67 265
67 295
67 307
68 168
68 169
68 186
68 200
68 215
68 257
68 266
68 296
68 308
69 164
69 172
69 182
69 201
69 211
69 253
69 267
69 297
69 309
70 167
70 171
70 185
70 202
70 216
70 258
70 268
70 298
70 310
71 163
71 174
71 181
71 203
71 212
71 254
71 269
71 299
71 311
72 165
72 173
72 183
72 204
72 214
72 256
72 270
72 300
72 312
73 172
73 176
73 190
73 205
73 219
73 261
73 271
73 301
73 313
74 174
74 175
74 192
74 206
74 221
74 263
74 272
74 302
74 314
75 170
75 178
75 188
75 207
75 217
75 259
75 273
75 303
75 315
76 173
76 177
76 191
76 208
76 222
76 264
76 274
76 304
76 316
77 169
77 180
77 187
77 209
77 218
77 260
77 275
77 305
77 317
78 171
78 179
78 189
78 210
78 220
78 262
78 276
78 306
78 318
79 178
79 182
79 196
79 201
79 211
79 225
79 277
79 307
79 319
80 180
80 181
80 198
80 203
80 212
80 227
80 278
80 308
80 320
81 176
81 184
81 194
81 199
81 213
81 223
81 279
81 309
81 321
82 179
82 183
82 197
82 204
82 214
82 228
82 280
82 310
82 322
83 175
83 186
83 193
83 200
83 215
83 224
83 281
83 311
83 323
84 177
84 185
84 195
84 202
84 216
84 226
84 282
84 312
84 324
85 136
85 184
85 188
85 207
85 217
85 231
85 283
85 313
85 325
86 138
86 186
86 187
86 209
86 218
86 233
86 284
86 314
86 326
87 134
87 182
87 190
87 205
87 219
87 229
87 285
87 315
87 327
88 137
88 185
88 189
88 210
88 220
88 234
88 286
88 316
88 328
89 133
89 181
89 192
89 206
89 221
89 230
89 287
89 317
89 329
90 135
90 183
90 191
90 208
90 222
90 232
90 288
90 318
90 330
91 142
91 190
91 194
91 213
91 223
91 237
91 265
91 289
91 319
92 144
92 192
92 193
92 215
92 224
92 239
92 266
92 290
92 320
93 140
93 188
93 196
93 211
93 225
93 235
93 267
93 291
93 321
94 143
94 191
94 195
94 216
94 226
94 240
94 268
94 292
94 322
95 139
95 187
95 198
95 212
95 227
95 236
95 269
95 293
95 323
96 141
96 189
96 197
96 214
96 228
96 238
96 270
96 294
96 324
97 134
97 148
97 196
97 219
97 229
97 243
97 271
97 295
97 325
98 133
98 150
98 198
98 221
98 230
98 245
98 272
98 296
98 326
99 136
99 146
99 194
99 217
99 231
99 241
99 273
99 297
99 327
100 135
100 149
100 197
100 222
100 232
100 246
100 274
100 298
100 328
101 138
101 145
101 193
101 218
101 233
101 242
101 275
101 299
101 329
102 137
102 147
102 195
102 220
102 234
102 244
102 276
102 300
102 330
103 136
103 140
103 154
103 225
103 235
103 249
103 265
103 277
103 301
104 138
104 139
104 156
104 227
104 236
104 251
104 266
104 278
104 302
105 134
105 142
105 152
105 223
105 237
105 247
105 267
105 279
105 303
106 137
106 141
106 155
106 228
106 238
106 252
106 268
106 280
106 304
107 133
107 144
107 151
107 224
107 239
107 248
107 269
107 281
107 305
108 135
108 143
108 153
108 226
108 240
108 250
108 270
108 282
108 306
109 142
109 146
109 160
109 231
109 241
109 255
109 271
109 283
109 307
110 144
110 145
110 162
110 233
110 242
110 257
110 272
110 284
110 308
111 140
111 148
111 158
111 229
111 243
111 253
111 273
111 285
111 309
112 143
112 147
112 161
112 234
112 244
112 258
112 274
112 286
112 310
113 139
113 150
113 157
113 230
113 245
113 254
113 275
113 287
113 311
114 141
114 149
114 159
114 232
114 246
114 256
114 276
114 288
114 312
115 148
115 152
115 166
115 237
115 247
115 261
115 277
115 289
115 313
116 150
116 151
116 168
116 239
116 248
116 263
116 278
116 290
116 314
117 146
117 154
117 164
117 235
117 249
117 259
117 279
117 291
117 315
118 149
118 153
118 167
118 240
118 250
118 264
118 280
118 292
118 316
119 145
119 156
119 163
119 236
119 251
119 260
119 281
119 293
119 317
120 147
120 155
120 165
120 238
120 252
120 262
120 282
120 294
120 318
121 154
121 158
121 172
121 201
121 243
121 253
121 283
121 295
121 319
122 156
122 157
122 174
122 203
122 245
122 254
122 284
122 296
122 320
123 152
123 160
123 170
123 199
123 241
123 255
123 285
123 297
123 321
124 155
124 159
124 173
124 204
124 246
124 256
124 286
124 298
124 322
125 151
125 162
125 169
125 200
125 242
125 257
125 287
125 299
125 323
126 153
126 161
126 171
126 202
126 244
126 258
126 288
126 300
126 324
127 160
127 164
127 178
127 207
127 249
127 259
127 289
127 301
127 325
128 162
128 163
128 180
128 209
128 251
128 260
128 290
128 302
128 326
129 158
129 166
129 176
129 205
129 247
129 261
129 291
129 303
129 327
130 161
130 165
130 179
130 210
130 252
130 262
130 292
130 304
130 328
131 157
131 168
131 175
131 206
131 248
131 263
131 293
131 305
131 329
132 159
132 167
132 177
132 208
132 250
132 264
132 294
132 306
132 330
