%%MatrixMarket matrix coordinate pattern general
% [[270, 54, 10]] Mitten code over C9 x S3 (seed=2) A=[[(12, 18, 37), (0, 2, 12)]], B=[[(14, 21, 52), (0, 11, 42)]] (Hz)
108 270 972
1 15
1 22
1 53
1 55
1 66
1 97
1 229
1 235
1 254
2 17
2 24
2 51
2 56
2 64
2 98
2 230
2 236
2 253
3 13
3 20
3 54
3 57
3 65
3 99
3 231
3 237
3 257
4 18
4 23
4 49
4 58
4 62
4 100
4 232
4 238
4 258
5 14
5 19
5 52
5 59
5 63
5 101
5 233
5 239
5 255
6 16
6 21
6 50
6 60
6 61
6 102
6 234
6 240
6 256
7 5
7 21
7 28
7 61
7 72
7 103
7 235
7 241
7 260
8 3
8 23
8 30
8 62
8 70
8 104
8 236
8 242
8 259
9 6
9 19
9 26
9 63
9 71
9 105
9 237
9 243
9 263
10 1
10 24
10 29
10 64
10 68
10 106
10 238
10 244
10 264
11 4
11 20
11 25
11 65
11 69
11 107
11 239
11 245
11 261
12 2
12 22
12 27
12 66
12 67
12 108
12 240
12 246
12 262
13 11
13 27
13 34
13 55
13 67
13 78
13 241
13 247
13 266
14 9
14 29
14 36
14 56
14 68
14 76
14 242
14 248
14 265
15 12
15 25
15 32
15 57
15 69
15 77
15 243
15 249
15 269
16 7
16 30
16 35
16 58
16 70
16 74
16 244
16 250
16 270
17 10
17 26
17 31
17 59
17 71
17 75
17 245
17 251
17 267
18 8
18 28
18 33
18 60
18 72
18 73
18 246
18 252
18 268
19 17
19 33
19 40
19 61
19 73
19 84
19 218
19 247
19 253
20 15
20 35
20 42
20 62
20 74
20 82
20 217
20 248
20 254
21 18
21 31
21 38
21 63
21 75
21 83
21 221
21 249
21 255
22 13
22 36
22 41
22 64
22 76
22 80
22 222
22 250
22 256
23 16
23 32
23 37
23 65
23 77
23 81
23 219
23 251
23 257
24 14
24 34
24 39
24 66
24 78
24 79
24 220
24 252
24 258
25 23
25 39
25 46
25 67
25 79
25 90
25 224
25 253
25 259
26 21
26 41
26 48
26 68
26 80
26 88
26 223
26 254
26 260
27 24
27 37
27 44
27 69
27 81
27 89
27 227
27 255
27 261
28 19
28 42
28 47
28 70
28 82
28 86
28 228
28 256
28 262
29 22
29 38
29 43
29 71
29 83
29 87
29 225
29 257
29 263
30 20
30 40
30 45
30 72
30 84
30 85
30 226
30 258
30 264
31 29
31 45
31 52
31 73
31 85
31 96
31 230
31 259
31 265
32 27
32 47
32 54
32 74
32 86
32 94
32 229
32 260
32 266
33 30
33 43
33 50
33 75
33 87
33 95
33 233
33 261
33 267
34 25
34 48
34 53
34 76
34 88
34 92
34 234
34 262
34 268
35 28
35 44
35 49
35 77
35 89
35 93
35 231
35 263
35 269
36 26
36 46
36 51
36 78
36 90
36 91
36 232
36 264
36 270
37 4
37 35
37 51
37 79
37 91
37 102
37 217
37 236
37 265
38 6
38 33
38 53
38 80
38 92
38 100
38 218
38 235
38 266
39 2
39 36
39 49
39 81
39 93
39 101
39 219
39 239
39 267
40 5
40 31
40 54
40 82
40 94
40 98
40 220
40 240
40 268
41 1
41 34
41 50
41 83
41 95
41 99
41 221
41 237
41 269
42 3
42 32
42 52
42 84
42 96
42 97
42 222
42 238
42 270
43 3
43 10
43 41
43 85
43 97
43 108
43 217
43 223
43 242
44 5
44 12
44 39
44 86
44 98
44 106
44 218
44 224
44 241
45 1
45 8
45 42
45 87
45 99
45 107
45 219
45 225
45 245
46 6
46 11
46 37
46 88
46 100
46 104
46 220
46 226
46 246
47 2
47 7
47 40
47 89
47 101
47 105
47 221
47 227
47 243
48 4
48 9
48 38
48 90
48 102
48 103
48 222
48 228
48 244
49 9
49 16
49 47
49 60
49 91
49 103
49 223
49 229
49 248
50 11
50 18
50 45
50 58
50 92
50 104
50 224
50 230
50 247
51 7
51 14
51 48
51 59
51 93
51 105
51 225
51 231
51 251
52 12
52 17
52 43
52 56
52 94
52 106
52 226
52 232
52 252
53 8
53 13
53 46
53 57
53 95
53 107
53 227
53 233
53 249
54 10
54 15
54 44
54 55
54 96
54 108
54 228
54 234
54 250
55 123
55 130
55 161
55 163
55 174
55 205
55 217
55 219
55 229
56 125
56 132
56 159
56 164
56 172
56 206
56 218
56 220
56 230
57 121
57 128
57 162
57 165
57 173
57 207
57 217
57 219
57 231
58 126
58 131
58 157
58 166
58 170
58 208
58 218
58 220
58 232
59 122
59 127
59 160
59 167
59 171
59 209
59 221
59 222
59 233
60 124
60 129
60 158
60 168
60 169
60 210
60 221
60 222
60 234
61 113
61 129
61 136
61 169
61 180
61 211
61 223
61 225
61 235
62 111
62 131
62 138
62 170
62 178
62 212
62 224
62 226
62 236
63 114
63 127
63 134
63 171
63 179
63 213
63 223
63 225
63 237
64 109
64 132
64 137
64 172
64 176
64 214
64 224
64 226
64 238
65 112
65 128
65 133
65 173
65 177
65 215
65 227
65 228
65 239
66 110
66 130
66 135
66 174
66 175
66 216
66 227
66 228
66 240
67 119
67 135
67 142
67 163
67 175
67 186
67 229
67 231
67 241
68 117
68 137
68 144
68 164
68 176
68 184
68 230
68 232
68 242
69 120
69 133
69 140
69 165
69 177
69 185
69 229
69 231
69 243
70 115
70 138
70 143
70 166
70 178
70 182
70 230
70 232
70 244
71 118
71 134
71 139
71 167
71 179
71 183
71 233
71 234
71 245
72 116
72 136
72 141
72 168
72 180
72 181
72 233
72 234
72 246
73 125
73 141
73 148
73 169
73 181
73 192
73 235
73 237
73 247
74 123
74 143
74 150
74 170
74 182
74 190
74 236
74 238
74 248
75 126
75 139
75 146
75 171
75 183
75 191
75 235
75 237
75 249
76 121
76 144
76 149
76 172
76 184
76 188
76 236
76 238
76 250
77 124
77 140
77 145
77 173
77 185
77 189
77 239
77 240
77 251
78 122
78 142
78 147
78 174
78 186
78 187
78 239
78 240
78 252
79 131
79 147
79 154
79 175
79 187
79 198
79 241
79 243
79 253
80 129
80 149
80 156
80 176
80 188
80 196
80 242
80 244
80 254
81 132
81 145
81 152
81 177
81 189
81 197
81 241
81 243
81 255
82 127
82 150
82 155
82 178
82 190
82 194
82 242
82 244
82 256
83 130
83 146
83 151
83 179
83 191
83 195
83 245
83 246
83 257
84 128
84 148
84 153
84 180
84 192
84 193
84 245
84 246
84 258
85 137
85 153
85 160
85 181
85 193
85 204
85 247
85 249
85 259
86 135
86 155
86 162
86 182
86 194
86 202
86 248
86 250
86 260
87 138
87 151
87 158
87 183
87 195
87 203
87 247
87 249
87 261
88 133
88 156
88 161
88 184
88 196
88 200
88 248
88 250
88 262
89 136
89 152
89 157
89 185
89 197
89 201
89 251
89 252
89 263
90 134
90 154
90 159
90 186
90 198
90 199
90 251
90 252
90 264
91 112
91 143
91 159
91 187
91 199
91 210
91 253
91 255
91 265
92 114
92 141
92 161
92 188
92 200
92 208
92 254
92 256
92 266
93 110
93 144
93 157
93 189
93 201
93 209
93 253
93 255
93 267
94 113
94 139
94 162
94 190
94 202
94 206
94 254
94 256
94 268
95 109
95 142
95 158
95 191
95 203
95 207
95 257
95 258
95 269
96 111
96 140
96 160
96 192
96 204
96 205
96 257
96 258
96 270
97 111
97 118
97 149
97 193
97 205
97 216
97 217
97 259
97 261
98 113
98 120
98 147
98 194
98 206
98 214
98 218
98 260
98 262
99 109
99 116
99 150
99 195
99 207
99 215
99 219
99 259
99 261
100 114
100 119
100 145
100 196
100 208
100 212
100 220
100 260
100 262
101 110
101 115
101 148
101 197
101 209
101 213
101 221
101 263
101 264
102 112
102 117
102 146
102 198
102 210
102 211
102 222
102 263
102 264
103 117
103 124
103 155
103 168
103 199
103 211
103 223
103 265
103 267
104 119
104 126
104 153
104 166
104 200
104 212
104 224
104 266
104 268
105 115
105 122
105 156
105 167
105 201
105 213
105 225
105 265
105 267
106 120
106 125
106 151
106 164
106 202
106 214
106 226
106 266
106 268
107 116
107 121
107 154
107 165
107 203
107 215
107 227
107 269
107 270
108 118
108 123
108 152
108 163
108 204
108 216
108 228
108 269
108 270
