%%MatrixMarket matrix coordinate pattern general
% [[330, 66, 6]] Mitten code over C11 x S3 (seed=2) (Lz)
66 330 924
1 1
1 136
1 141
1 142
1 148
1 154
1 159
1 166
1 171
1 172
1 177
1 183
1 189
1 190
2 2
2 135
2 141
2 142
2 147
2 153
2 160
2 165
2 171
2 172
2 178
2 184
2 189
2 190
3 3
3 138
3 139
3 144
3 150
3 156
3 157
3 168
3 169
3 174
3 175
3 181
3 187
3 192
4 4
4 137
4 140
4 143
4 149
4 155
4 158
4 167
4 170
4 173
4 176
4 182
4 188
4 191
5 5
5 133
5 139
5 144
5 145
5 151
5 162
5 163
5 169
5 174
5 180
5 186
5 187
5 192
6 6
6 134
6 140
6 143
6 146
6 152
6 161
6 164
6 170
6 173
6 179
6 185
6 188
6 191
7 7
7 142
7 147
7 148
7 154
7 160
7 165
7 172
7 177
7 178
7 183
7 189
7 195
7 196
8 8
8 141
8 147
8 148
8 153
8 159
8 166
8 171
8 177
8 178
8 184
8 190
8 195
8 196
9 9
9 144
9 145
9 150
9 156
9 162
9 163
9 174
9 175
9 180
9 181
9 187
9 193
9 198
10 10
10 143
10 146
10 149
10 155
10 161
10 164
10 173
10 176
10 179
10 182
10 188
10 194
10 197
11 11
11 139
11 145
11 150
11 151
11 157
11 168
11 169
11 175
11 180
11 186
11 192
11 193
11 198
12 12
12 140
12 146
12 149
12 152
12 158
12 167
12 170
12 176
12 179
12 185
12 191
12 194
12 197
13 13
13 135
13 136
13 148
13 153
13 154
13 160
13 166
13 171
13 178
13 183
13 184
13 189
13 195
14 14
14 135
14 136
14 147
14 153
14 154
14 159
14 165
14 172
14 177
14 183
14 184
14 190
14 196
15 15
15 133
15 138
15 150
15 151
15 156
15 162
15 168
15 169
15 180
15 181
15 186
15 187
15 193
16 16
16 134
16 137
16 149
16 152
16 155
16 161
16 167
16 170
16 179
16 182
16 185
16 188
16 194
17 17
17 133
17 138
17 145
17 151
17 156
17 157
17 163
17 174
17 175
17 181
17 186
17 192
17 198
18 18
18 134
18 137
18 146
18 152
18 155
18 158
18 164
18 173
18 176
18 182
18 185
18 191
18 197
19 19
19 135
19 141
19 142
19 154
19 159
19 160
19 166
19 172
19 177
19 184
19 189
19 190
19 195
20 20
20 136
20 141
20 142
20 153
20 159
20 160
20 165
20 171
20 178
20 183
20 189
20 190
20 196
21 21
21 133
21 139
21 144
21 156
21 157
21 162
21 168
21 174
21 175
21 186
21 187
21 192
21 193
22 22
22 134
22 140
22 143
22 155
22 158
22 161
22 167
22 173
22 176
22 185
22 188
22 191
22 194
23 23
23 138
23 139
23 144
23 151
23 157
23 162
23 163
23 169
23 180
23 181
23 187
23 192
23 198
24 24
24 137
24 140
24 143
24 152
24 158
24 161
24 164
24 170
24 179
24 182
24 188
24 191
24 197
25 25
25 135
25 141
25 147
25 148
25 160
25 165
25 166
25 172
25 178
25 183
25 190
25 195
25 196
26 26
26 136
26 142
26 147
26 148
26 159
26 165
26 166
26 171
26 177
26 184
26 189
26 195
26 196
27 27
27 133
27 139
27 145
27 150
27 162
27 163
27 168
27 174
27 180
27 181
27 192
27 193
27 198
28 28
28 134
28 140
28 146
28 149
28 161
28 164
28 167
28 173
28 179
28 182
28 191
28 194
28 197
29 29
29 138
29 144
29 145
29 150
29 157
29 163
29 168
29 169
29 175
29 186
29 187
29 193
29 198
30 30
30 137
30 143
30 146
30 149
30 158
30 164
30 167
30 170
30 176
30 185
30 188
30 194
30 197
31 31
31 135
31 136
31 141
31 147
31 153
31 154
31 166
31 171
31 172
31 178
31 184
31 189
31 196
32 32
32 135
32 136
32 142
32 148
32 153
32 154
32 165
32 171
32 172
32 177
32 183
32 190
32 195
33 33
33 133
33 138
33 139
33 145
33 151
33 156
33 168
33 169
33 174
33 180
33 186
33 187
33 198
34 34
34 134
34 137
34 140
34 146
34 152
34 155
34 167
34 170
34 173
34 179
34 185
34 188
34 197
35 35
35 133
35 138
35 144
35 150
35 151
35 156
35 163
35 169
35 174
35 175
35 181
35 192
35 193
36 36
36 134
36 137
36 143
36 149
36 152
36 155
36 164
36 170
36 173
36 176
36 182
36 191
36 194
37 37
37 136
37 141
37 142
37 147
37 153
37 159
37 160
37 172
37 177
37 178
37 184
37 190
37 195
38 38
38 135
38 141
38 142
38 148
38 154
38 159
38 160
38 171
38 177
38 178
38 183
38 189
38 196
39 39
39 138
39 139
39 144
39 145
39 151
39 157
39 162
39 174
39 175
39 180
39 186
39 192
39 193
40 40
40 137
40 140
40 143
40 146
40 152
40 158
40 161
40 173
40 176
40 179
40 185
40 191
40 194
41 41
41 133
41 139
41 144
41 150
41 156
41 157
41 162
41 169
41 175
41 180
41 181
41 187
41 198
42 42
42 134
42 140
42 143
42 149
42 155
42 158
42 161
42 170
42 176
42 179
42 182
42 188
42 197
43 43
43 135
43 142
43 147
43 148
43 153
43 159
43 165
43 166
43 178
43 183
43 184
43 190
43 196
44 44
44 136
44 141
44 147
44 148
44 154
44 160
44 165
44 166
44 177
44 183
44 184
44 189
44 195
45 45
45 133
45 144
45 145
45 150
45 151
45 157
45 163
45 168
45 180
45 181
45 186
45 192
45 198
46 46
46 134
46 143
46 146
46 149
46 152
46 158
46 164
46 167
46 179
46 182
46 185
46 191
46 197
47 47
47 138
47 139
47 145
47 150
47 156
47 162
47 163
47 168
47 175
47 181
47 186
47 187
47 193
48 48
48 137
48 140
48 146
48 149
48 155
48 161
48 164
48 167
48 176
48 182
48 185
48 188
48 194
49 49
49 136
49 141
49 148
49 153
49 154
49 159
49 165
49 171
49 172
49 184
49 189
49 190
49 196
50 50
50 135
50 142
50 147
50 153
50 154
50 160
50 166
50 171
50 172
50 183
50 189
50 190
50 195
51 51
51 138
51 139
51 150
51 151
51 156
51 157
51 163
51 169
51 174
51 186
51 187
51 192
51 198
52 52
52 137
52 140
52 149
52 152
52 155
52 158
52 164
52 170
52 173
52 185
52 188
52 191
52 197
53 53
53 133
53 144
53 145
53 151
53 156
53 162
53 168
53 169
53 174
53 181
53 187
53 192
53 193
54 54
54 134
54 143
54 146
54 152
54 155
54 161
54 167
54 170
54 173
54 182
54 188
54 191
54 194
55 55
55 136
55 142
55 147
55 154
55 159
55 160
55 165
55 171
55 177
55 178
55 190
55 195
55 196
56 56
56 135
56 141
56 148
56 153
56 159
56 160
56 166
56 172
56 177
56 178
56 189
56 195
56 196
57 57
57 138
57 144
57 145
57 156
57 157
57 162
57 163
57 169
57 175
57 180
57 192
57 193
57 198
58 58
58 137
58 143
58 146
58 155
58 158
58 161
58 164
58 170
58 176
58 179
58 191
58 194
58 197
59 59
59 133
59 139
59 150
59 151
59 157
59 162
59 168
59 174
59 175
59 180
59 187
59 193
59 198
60 60
60 134
60 140
60 149
60 152
60 158
60 161
60 167
60 173
60 176
60 179
60 188
60 194
60 197
61 61
61 135
61 136
61 142
61 148
61 153
61 160
61 165
61 166
61 171
61 177
61 183
61 184
61 196
62 62
62 135
62 136
62 141
62 147
62 154
62 159
62 165
62 166
62 172
62 178
62 183
62 184
62 195
63 63
63 133
63 138
63 144
63 150
63 151
63 162
63 163
63 168
63 169
63 175
63 181
63 186
63 198
64 64
64 134
64 137
64 143
64 149
64 152
64 161
64 164
64 167
64 170
64 176
64 182
64 185
64 197
65 65
65 133
65 138
65 139
65 145
65 156
65 157
65 163
65 168
65 174
65 180
65 181
65 186
65 193
66 66
66 134
66 137
66 140
66 146
66 155
66 158
66 164
66 167
66 173
66 179
66 182
66 185
66 194
